** written by FreeCAD inp file writer for CalculiX,Abaqus meshes
** highest dimension mesh elements only.

** Nodes
*Node, NSET=Nall
1, -7.08087682724, 4.05939912796, 2.628201007843
2, -7.847014904022, -4.512721538544, 3.407018184662
3, -6.443078517914, -3.514016151428, 3.414401292801
4, -5.495606899261, -2.170355558395, 3.271907806396
5, -5.038571357727, -0.6198604106903, 3.27880859375
6, -5.094932079315, 0.9696951508522, 3.296936511993
7, -5.805288314819, 2.721101760864, 3.185507059097
8, -6.619695186615, 3.684228420258, 3.917627334595
9, -7.924686908722, 4.548964500427, 3.783983230591
10, -8.317225456238, -4.708319187164, 1.805183768272
11, -6.818140983582, -3.856912136078, 1.669235467911
12, -5.734673023224, -2.609019756317, 1.591163396835
13, -5.137391090393, -1.164058566093, 1.634409785271
14, -5.01656627655, 0.4066810011864, 1.635067224503
15, -5.41265296936, 1.989031672478, 1.574247956276
16, -6.345587253571, 3.412516117096, 1.420672059059
17, -7.607948303223, 4.390682220459, 1.261323690414
18, -8.99072933197, 4.897078037262, 1.139331221581
19, -8.554717063904, 4.786560058594, 2.4637196064
20, 7.08251619339, 4.060577392578, 2.506053209305
21, 6.052405357361, -3.06863117218, 2.175119161606
22, 5.974099636078, 2.965151548386, 2.342858314514
23, 8.633929252625, -4.809766292572, 2.607843399048
24, 8.602897644043, 4.800844192505, 2.595946550369
25, 8.189061164856, -4.660525798798, 1.25409758091
26, 7.096590042114, -4.070652484894, 1.977949500084
27, 5.373523235321, -1.896236538887, 1.821823716164
28, 5.007961750031, -0.2820557653904, 1.73770070076
29, 5.205482959747, 1.418663144112, 1.763759493828
30, 5.689456939697, 2.533617973328, 1.098922729492
31, 6.549091339111, 3.618180513382, 1.213080883026
32, 7.85662984848, 4.517295837402, 1.308978319168
33, 8.934415817261, -4.885133743286, 3.934321165085
34, 7.686686515808, -4.432672023773, 3.673507213593
35, 6.498653411865, -3.569393634796, 3.567457437515
36, 5.587888240814, -2.352289915085, 3.519585609436
37, 5.086220741272, -0.9245399236679, 3.487336158752
38, 5.046968460083, 0.6837228536606, 3.502665519714
39, 5.509428024292, 2.1988093853, 3.574456691742
40, 6.478814125061, 3.549823999405, 3.712924003601
41, 7.835050106049, 4.506993770599, 3.80019569397
42, -0.5281090736389, 7.490659713745, 5
43, 0.9570407271385, 8.174468040466, 5
44, -0.222171202302, 8.779154777527, 5
45, -0.80259090662, 5.978844165802, 5
46, 0.8384454846382, 6.629654884338, 5
47, -2.798615694046, 8.76195526123, 5
48, 0.1086308509111, -5.864890575409, 5
49, 0.5426026582718, -7.677106380463, 5
50, 2.013709306717, -7.885525226593, 5
51, -1.208438754082, -7.279888629913, 5
52, -1.503589868546, 8.651079177856, 5
53, 1.666774511337, -6.440248012543, 5
54, -0.01877219043672, -4.014815807343, 5
55, -2.800066709518, -7.739681243896, 5
56, 1.405632019043, -4.805786132812, 5
57, -2.356178283691, 7.257960796356, 5
58, 2.253032207489, 7.387346744537, 5
59, -0.860561132431, 4.300313472748, 5
60, 3.168515205383, -7.10662317276, 5
61, 0.7737202048302, 4.84890460968, 5
62, -1.360464572906, -5.135734558105, 5
63, -4.792823791504, 9.790042877197, 5
64, 0.7095993757248, 9.714418411255, 5
65, -2.09979057312, -9.374090194702, 5
66, -0.1924796104431, -9.136699676514, 5
67, 1.49197781086, -9.190003395081, 5
68, 3.209676027298, -8.963833808899, 5
69, 2.341222286224, 9.215534210205, 5
70, -0.04590125754476, -1.993724822998, 5
71, -3.962419986725, -8.88855266571, 5
72, -0.1488129496574, 1.260067462921, 5
73, 0.7392714619637, -0.2039603441954, 5
74, 3.530675172806, 8.166997909546, 5
75, -0.7825679183006, 9.929178237915, 5
76, 4.697236537933, -9.39678478241, 5
77, -2.178651094437, 9.938786506653, 5
78, 4.146597385406, 9.457648277283, 5
79, -3.557503223419, 9.858723640442, 5
80, 1.362264156342, -3.100853681564, 5
81, 2.855429887772, -5.51221704483, 5
82, -4.211778640747, 8.349081993103, 5
83, -2.434119462967, 5.528993606567, 5
84, 4.714560985565, -7.79372215271, 5
85, -0.8414620161057, -0.2681235969067, 5
86, -1.192277669907, 2.610515832901, 5
87, 0.6981846690178, 3.03996181488, 5
88, -1.447818517685, -3.318723201752, 5
89, -2.744421720505, -6.099969387054, 5
90, 2.355331659317, 5.717569828033, 5
91, -5.694641113281, -7.996064186096, 5
92, 3.278471946716, 10.80455875397, 5
93, -3.673845052719, -10.88386917114, 5
94, -2.049026727676, -11.09653759003, 5
95, -0.663791000843, -10.78891277313, 5
96, 0.9457488059998, -10.65745544434, 5
97, 2.541077613831, -10.56814575195, 5
98, 4.117023944855, -10.64685344696, 5
99, -4.145064353943, -7.023058891296, 5
100, -4.065659046173, 6.62891626358, 5
101, 5.638404846191, 9.4430809021, 5
102, -1.489076256752, 11.17879581451, 5
103, 3.833037137985, 6.642095565796, 5
104, 5.298206329346, 7.872760772705, 5
105, -5.873813152313, 9.085566520691, 5
106, -5.651532649994, 7.530104637146, 5
107, 4.931198596954, 10.78599262238, 5
108, 5.969317436218, -9.049132347107, 5
109, 6.183262825012, -7.717158317566, 5
110, 5.699466228485, -10.55241298676, 5
111, -5.738394737244, -10.10736846924, 5
112, -5.808640956879, 10.68434810638, 5
113, -4.385811805725, 11.060587883, 5
114, -2.950823783875, 11.1560716629, 5
115, 1.595753192902, 10.91343784332, 5
116, 0.02204172126949, 11.09544754028, 5
117, 2.684833288193, -3.935371398926, 5
118, 4.334854125977, -6.050664901733, 5
119, 1.719873189926, -1.472793340683, 5
120, 1.608284592628, 1.226091742516, 5
121, -2.660727739334, 3.738083124161, 5
122, -1.793650150299, 1.120502948761, 5
123, 2.429604291916, 4.03800868988, 5
124, -1.802386045456, -1.672913193703, 5
125, -2.804589986801, -4.330724716187, 5
126, -7.145903587341, -8.633029937744, 5
127, 6.783318519592, 10.4797296524, 5
128, -5.721105575562, -6.202976226807, 5
129, 5.822232246399, -6.38365316391, 5
130, 3.989612817764, -4.63664150238, 5
131, 2.743182182312, -2.446335315704, 5
132, 2.275458812714, -0.0840860158205, 5
133, 4.066046714783, 12.18443870544, 5
134, -7.371226787567, -10.19713687897, 5
135, 6.927693367004, 6.984073638916, 5
136, -7.094948768616, -11.81945514679, 5
137, -5.254451751709, -11.99374675751, 5
138, -3.90265250206, -12.48986244202, 5
139, -2.578353881836, -12.37158584595, 5
140, -1.097702860832, -12.3039598465, 5
141, 0.4154765307903, -12.21809768677, 5
142, 1.932619094849, -12.116938591, 5
143, 3.611041784286, -12.10344219208, 5
144, 5.163642883301, -12.03617954254, 5
145, -5.578734874725, 5.948896884918, 5
146, 2.562017440796, 2.490866184235, 5
147, 7.010766029358, -11.87687015533, 5
148, -7.123835086823, -7.02951002121, 5
149, -2.413158893585, -0.1792140752077, 5
150, -2.742762804031, 2.264070034027, 5
151, -4.147783279419, 4.844489574432, 5
152, -4.258409976959, -5.23523235321, 5
153, 5.465341567993, 6.079743862152, 5
154, -7.194075107574, 10.00807476044, 5
155, -7.160254001617, 8.319003105164, 5
156, -7.08807849884, 6.820436000824, 5
157, 3.975989341736, 4.898206233978, 5
158, 7.166658878326, -10.0803527832, 5
159, 7.341360569, -8.424797058105, 5
160, 7.288096904755, -6.938537120819, 5
161, -2.852289438248, -2.718490600586, 5
162, 6.960114955902, 8.605147361755, 5
163, -7.126442432404, 11.9498090744, 5
164, -5.346134185791, 12.25506687164, 5
165, -3.80503821373, 12.38931465149, 5
166, -2.289918422699, 12.43671703339, 5
167, -0.7395555973053, 12.42104530334, 5
168, 0.8090164661407, 12.32999897003, 5
169, 2.469945192337, 12.19767379761, 5
170, 7.361211776733, 12.08657932281, 5
171, 5.67887878418, 12.11392498016, 5
172, 8.804677009583, 12.31517505646, 5
173, -8.712679862976, -12.52807807922, 5
174, -8.682450294495, -10.94503211975, 5
175, -8.687887191772, -9.201160430908, 5
176, -8.581858634949, -7.649798870087, 5
177, -8.970593452454, -13.90469741821, 5
178, -7.692547798157, -13.64811038971, 5
179, -6.16593837738, -13.55411338806, 5
180, -4.693416118622, -13.64268779755, 5
181, -3.19940495491, -13.71638584137, 5
182, -1.702944159508, -13.67890167236, 5
183, -0.1400130987167, -13.64595794678, 5
184, 1.433442473412, -13.59348487854, 5
185, 2.995103597641, -13.59032440186, 5
186, 4.540019989014, -13.54339599609, 5
187, 6.048864364624, -13.54938983917, 5
188, 7.491930961609, -13.6300983429, 5
189, 8.564284324646, 10.88861560822, 5
190, 8.475431442261, 9.23778629303, 5
191, 8.472990989685, 7.647136211395, 5
192, -8.560912132263, -6.135511875153, 5
193, -7.119563579559, -5.502835273743, 5
194, -5.743854045868, -4.586320400238, 5
195, -7.155316352844, -4.111906528473, 5
196, -4.429453372955, -3.295491218567, 5
197, -6.059183597565, -3.077330827713, 5
198, -3.68622469902, -1.276753544807, 5
199, -5.297639369965, -1.699354052544, 5
200, -3.626123666763, 0.8939797282219, 5
201, -5.004877567291, -0.2207942903042, 5
202, -4.284373283386, 2.977175474167, 5
203, -5.257077693939, 1.58262014389, 5
204, -5.62783575058, 4.388879776001, 5
205, -5.956913471222, 2.941674947739, 5
206, -7.04167842865, 5.37276506424, 5
207, -7.017266273499, 4.012891769409, 5
208, -8.688453674316, 12.38702869415, 5
209, -8.605439186096, 10.80855083466, 5
210, -8.647254943848, 9.098092079163, 5
211, -8.577385902405, 7.540191650391, 5
212, -8.548225402832, 6.073357582092, 5
213, 8.651494979858, -12.72054958344, 5
214, 8.596292495728, -10.96732521057, 5
215, 8.680830955505, -9.183074951172, 5
216, 8.653577804565, -7.594982147217, 5
217, 8.5919008255, -6.094851493835, 5
218, 7.095568180084, -5.489194393158, 5
219, 8.45814704895, -4.756331443787, 5
220, 5.533256530762, -4.658916950226, 5
221, 7.06657743454, -4.049077987671, 5
222, 4.323631763458, -2.979163408279, 5
223, 5.960915088654, -2.947167158127, 5
224, 3.571824789047, -1.046959996223, 5
225, 5.238457679749, -1.525685548782, 5
226, 3.519094705582, 1.040626049042, 5
227, 5.000029087067, 0.01699059084058, 5
228, 4.191774368286, 3.069917201996, 5
229, 5.248934268951, 1.558002948761, 5
230, 5.571547031403, 4.440005779266, 5
231, 5.960915565491, 2.947167873383, 5
232, 6.977573871613, 5.446187496185, 5
233, 7.066572666168, 4.049074649811, 5
234, 8.479050636292, 6.123900413513, 5
235, -8.939291000366, 13.75797843933, 5
236, -7.665414810181, 13.59948730469, 5
237, -6.199983119965, 13.56611537933, 5
238, -4.663993835449, 13.65537452698, 5
239, -3.124536514282, 13.70144557953, 5
240, -1.561465263367, 13.7157869339, 5
241, 0.03886302560568, 13.70380973816, 5
242, 1.628347158432, 13.68910312653, 5
243, 3.250815629959, 13.62467861176, 5
244, 4.794658184052, 13.58513355255, 5
245, 6.344878196716, 13.61459922791, 5
246, 8.01066493988, 13.61552238464, 5
247, 10, -11.77135944366, 2.519562721252
248, 10, -9.923679351807, 2.414135694504
249, 10, 11.03204154968, 2.599807262421
250, 10, 7.86986541748, 2.899453401566
251, 10, 12.3105173111, 3.338931083679
252, 10, 10.80961227417, 3.848812580109
253, 10, 11.43892002106, 5
254, 10, 9.540340423584, 3.140431165695
255, 10, 9.829189300537, 5
256, 10, -13.44542312622, 2.696731090546
257, 10, -12.66355991364, 1.286318540573
258, 10, -10.91043376923, 1.191267490387
259, 10, -9.366641044617, 1.141459822655
260, 10, -8.118985176086, 1.93035364151
261, 10, -13.87095737457, 3.965286254883
262, 10, -12.47392463684, 3.809582233429
263, 10, -10.79036808014, 3.768633842468
264, 10, -11.76589107513, 5
265, 10, -9.009722709656, 3.606941461563
266, 10, -9.851162910461, 5
267, 10, -8.234108924866, 5
268, 10, -7.265688419342, 3.538418531418
269, 10, -6.427206516266, 2.172721385956
270, 10, 8.219459533691, 5
271, 10, 6.609729766846, 5
272, 10, 6.55265712738, 3.770880460739
273, 10, 6.382078170776, 2.248822450638
274, 10, 7.559125423431, 1.289677262306
275, 10, 8.987787246704, 1.410663604736
276, 10, 10.44525623322, 1.387480258942
277, 10, 11.99601268768, 1.487774014473
278, 10, 13.45758914948, 1.725462198257
279, 10, 13.83087253571, 3.402346372604
280, -10, -25.86483573914, 2.43128991127
281, -10, -22.96307754517, 2.492300987244
282, -10, -20.08591270447, 2.454479217529
283, -10, -17.21578216553, 2.495757818222
284, -10, 17.14298439026, 2.554651737213
285, -10, 20.06978225708, 2.532425880432
286, -10, 22.97604370117, 2.504453420639
287, -10, 25.98007774353, 2.511722326279
288, -1.177777647972, -21.84422683716, 0
289, 1.224213123322, -22.12579345703, 0
290, -1.044004559517, 20.13585281372, 0
291, 1.695456027985, -24.27643966675, 0
292, 0.1397023051977, 22.74357223511, 0
293, -2.966960906982, 22.58352470398, 0
294, 0.3978666067123, -19.80516052246, 0
295, 3.059381723404, 22.93218040466, 0
296, -3.716743707657, 19.94648170471, 0
297, 1.444356679916, 20.47512435913, 0
298, -2.952063560486, -20.18333435059, 0
299, 3.17458152771, -20.55484580994, 0
300, -0.5805668234825, -23.96993255615, 0
301, 3.795630931854, -23.38736724854, 0
302, -3.180380582809, -23.3114490509, 0
303, 3.80214881897, 20.16165542603, 0
304, 5.856911659241, 19.69716835022, 0
305, -4.375700473785, -25.80252075195, 0
306, -5.666922092438, 23.73522377014, 0
307, -6.061374187469, 26.03950881958, 0
308, -3.815155029297, 25.44888687134, 0
309, -1.205719351768, 25.16731643677, 0
310, 1.490574240685, 25.25144195557, 0
311, 2.752136468887, -18.04399871826, 0
312, 0.6279510855675, -17.77237892151, 0
313, -1.470939159393, -17.9237575531, 0
314, 5.66143655777, 23.97087478638, 0
315, -4.070378780365, 17.81705665588, 0
316, -2.453897953033, 18.05681228638, 0
317, -0.8732293844223, 17.84492492676, 0
318, 0.7375599145889, 18.25584220886, 0
319, 2.640304327011, 18.21957397461, 0
320, 7.195607662201, 18.20441055298, 0
321, 4.766682624817, 17.84257125854, 0
322, -5.682637691498, -18.72389030457, 0
323, -5.730509281158, -23.96782112122, 0
324, -5.519080638885, -21.50781059265, 0
325, 4.196545600891, 25.67486381531, 0
326, -1.807005286217, -25.83798408508, 0
327, 3.250643014908, -25.9402885437, 0
328, 0.6823660731316, -26.11471939087, 0
329, 5.574841976166, -25.75908279419, 0
330, 5.564515113831, -18.52505493164, 0
331, 5.75615644455, -21.41519737244, 0
332, -3.6177713871, -18.06350135803, 0
333, 6.153464317322, -23.7040977478, 0
334, -5.939935684204, 18.29851913452, 0
335, -5.676639080048, 21.22351264954, 0
336, 5.682240486145, 21.78800010681, 0
337, 6.148452758789, -16.48021125793, 0
338, 4.517453193665, -16.56679344177, 0
339, 3.072316884995, -16.19478988647, 0
340, 1.554777383804, -16.34717559814, 0
341, -0.1403663605452, -16.33856582642, 0
342, -1.609939694405, -16.13590621948, 0
343, -3.023741483688, -16.4198474884, 0
344, -4.735185623169, -16.58297348022, 0
345, -6.452229976654, -16.56024932861, 0
346, -7.980130195618, -16.24458885193, 0
347, -6.291085720062, 16.32118415833, 0
348, -4.80847454071, 16.39377784729, 0
349, -3.218260288239, 16.36958312988, 0
350, -1.666514635086, 16.37335586548, 0
351, -0.03680290281773, 16.40733528137, 0
352, 1.618664503098, 16.48276138306, 0
353, 3.288855791092, 16.43751907349, 0
354, 4.749363422394, 16.14137077332, 0
355, 6.259012699127, 16.45278930664, 0
356, 8.0656042099, 16.56389808655, 0
357, -7.993978500366, -17.94903945923, 0
358, -7.87736749649, -20.26913452148, 0
359, -10, -18.90209579468, 0
360, -7.894969463348, -22.93746185303, 0
361, -10, -21.60129737854, 0
362, -10, -24.26848220825, 0
363, -7.353943347931, -26.02843284607, 0
364, -5.309346199036, -27.94925308228, 0
365, -2.893485546112, -27.94231414795, 0
366, -0.3002561926842, -28.0034942627, 0
367, 2.439242839813, -28.02126121521, 0
368, 5.056477069855, -27.94160270691, 0
369, 7.620978832245, -27.72299957275, 0
370, 7.923926830292, -25.33005142212, 0
371, 7.98238325119, -22.69776535034, 0
372, 7.878794670105, -19.97184181213, 0
373, 7.883852481842, -17.13341331482, 0
374, -7.971827030182, 25.20268630981, 0
375, -7.869868278503, 22.60511207581, 0
376, -10, 24.28095626831, 0
377, -7.932308673859, 19.82800865173, 0
378, -10, 21.51319122314, 0
379, -7.979622364044, 16.96669006348, 0
380, -10, 18.8473072052, 0
381, -7.70659828186, 27.75309371948, 0
382, -5.168196201324, 27.89612579346, 0
383, -2.558524131775, 27.69724273682, 0
384, 0.151751562953, 27.62446594238, 0
385, 2.794875860214, 27.70708084106, 0
386, 5.273997783661, 27.82361793518, 0
387, 7.885883808136, 20.48213005066, 0
388, 7.824576854706, 23.08097648621, 0
389, 7.316826343536, 26.01985740662, 0
390, -1.464844942093, -22.0203037262, 5
391, -1.977723956108, 21.35929298401, 5
392, 0.3040747642517, 21.5170211792, 5
393, 0.9054503440857, -20.89180374146, 5
394, -1.640460014343, 23.47240257263, 5
395, -1.798989057541, -24.22190856934, 5
396, 2.803511857986, 21.7416305542, 5
397, -1.243896365166, -19.68140792847, 5
398, -0.7732430696487, 19.48881149292, 5
399, 2.029979944229, 19.55665016174, 5
400, 0.4818495512009, -23.69858551025, 5
401, 0.9951420426369, 23.70438194275, 5
402, 3.450402975082, 23.93165969849, 5
403, -3.263812303543, 19.89882659912, 5
404, -3.898155927658, -23.32835769653, 5
405, 3.37065410614, -20.59608840942, 5
406, 3.091398715973, -23.20826911926, 5
407, -3.560663938522, -20.45471763611, 5
408, -4.393027305603, 22.47019958496, 5
409, 5.859658718109, 24.55732154846, 5
410, -3.708108901978, 25.36633491516, 5
411, -0.8522455692291, 25.69091415405, 5
412, 4.113810539246, 25.99096679688, 5
413, -3.022724866867, -17.9777545929, 5
414, -1.158637404442, -17.76277160645, 5
415, 0.4850175082684, -18.32432365417, 5
416, 2.356443166733, -18.49661445618, 5
417, 4.37123298645, -18.51975440979, 5
418, -6.178049087524, 17.7037563324, 5
419, -4.258301258087, 18.0170211792, 5
420, -2.417659282684, 17.98839759827, 5
421, -0.8293845653534, 17.58648300171, 5
422, 0.7339786291122, 17.86575317383, 5
423, 2.312577486038, 17.60966491699, 5
424, 3.897484779358, 17.97270393372, 5
425, 5.594756126404, -21.17897415161, 5
426, 3.810223579407, -25.73477363586, 5
427, 1.567791461945, -25.80356788635, 5
428, 5.905020713806, 17.92967414856, 5
429, -3.269998550415, -25.8987159729, 5
430, -0.7765492796898, -26.04448890686, 5
431, -5.599876403809, -25.72664260864, 5
432, -5.616691589355, -18.50877571106, 5
433, -5.832951068878, -21.35341835022, 5
434, -6.216382980347, -23.65782928467, 5
435, 5.690317630768, -24.3586025238, 5
436, 6.468717098236, -18.10808753967, 5
437, -5.734866142273, 20.01452255249, 5
438, 4.59921836853, 19.98148727417, 5
439, 5.389973163605, 22.15438461304, 5
440, 1.777689695358, 25.84387588501, 5
441, 5.443084716797, -27.42304801941, 5
442, -6.138606071472, -16.42628479004, 5
443, -4.604241371155, -16.46626281738, 5
444, -5.463450908661, -15, 5
445, -3.156691551208, -16.15294837952, 5
446, -3.951267957687, -15, 5
447, -1.72726559639, -16.3130645752, 5
448, -2.439085006714, -15, 5
449, -0.05769146606326, -16.37907791138, 5
450, -0.8300038576126, -15, 5
451, 1.554895877838, -16.55726623535, 5
452, 0.9269018769264, -15, 5
453, 3.253593683243, -16.61984634399, 5
454, 2.439085006714, -15, 5
455, 4.90459728241, -16.5101184845, 5
456, 3.951267957687, -15, 5
457, 6.315585136414, -16.18800735474, 5
458, 5.463450908661, -15, 5
459, 6.975634098053, -15, 5
460, 7.795035362244, -16.41395378113, 5
461, -7.8071808815, 16.52305793762, 5
462, -6.272022724152, 16.10946846008, 5
463, -6.975634098053, 15, 5
464, -4.838767051697, 16.35571479797, 5
465, -5.463450908661, 15, 5
466, -3.251893758774, 16.39526557922, 5
467, -3.951267957687, 15, 5
468, -1.654032707214, 16.29148674011, 5
469, -2.439085006714, 15, 5
470, 0.006367926951498, 16.25793457031, 5
471, -0.8300038576126, 15, 5
472, 1.585768461227, 16.27003860474, 5
473, 0.9269018769264, 15, 5
474, 3.187962293625, 16.30092811584, 5
475, 2.439085006714, 15, 5
476, 4.753808498383, 16.37991142273, 5
477, 3.951267957687, 15, 5
478, 6.254167556763, 16.23373031616, 5
479, 5.463450908661, 15, 5
480, 2.813523054123, -27.91458892822, 5
481, 0.2707718610764, -27.99739074707, 5
482, -2.442776918411, -28.04302787781, 5
483, -5.052035808563, -27.93397521973, 5
484, -7.626212120056, -27.69537162781, 5
485, -7.979352474213, -25.23525047302, 5
486, -8.047522544861, -22.68710899353, 5
487, -10, -24.34050369263, 5
488, -7.929809093475, -19.94649887085, 5
489, -10, -21.60197257996, 5
490, -6.975634098053, -15, 5
491, -7.891462802887, -17.10462188721, 5
492, -10, -18.90074157715, 5
493, 8.406308174133, -18.00045585632, 5
494, 7.927463531494, -20.18748092651, 5
495, 7.794810771942, -23.01418876648, 5
496, 7.755659103394, -26.03176116943, 5
497, -8.026933670044, 18.944688797, 5
498, -10, 18.75909805298, 5
499, -7.558905124664, 22.1363697052, 5
500, -10, 21.59476089478, 5
501, -7.130914211273, 25.33555030823, 5
502, -10, 24.36463356018, 5
503, 7.979063510895, 25.39042663574, 5
504, 7.776118278503, 22.88842964172, 5
505, 7.513160228729, 19.99397850037, 5
506, 6.975634098053, 15, 5
507, 7.949129581451, 16.90864753723, 5
508, -7.915118217468, 27.95777320862, 5
509, -5.447869300842, 27.6856212616, 5
510, -2.598558187485, 27.75402069092, 5
511, 0.238800317049, 27.89088058472, 5
512, 3.031820297241, 27.97203826904, 5
513, 6.140155792236, 27.47735404968, 5
514, 10, -26.06588172913, 2.520618438721
515, 10, -24.47390365601, 5
516, 10, -23.15463638306, 2.536431074142
517, 10, -24.48952293396, 0
518, 10, -21.56989479065, 5
519, 10, -20.205493927, 2.467980146408
520, 10, -21.87062644958, 0
521, 10, -18.85272407532, 5
522, 10, -17.20722198486, 2.458903074265
523, 10, -18.75362586975, 0
524, 10, 17.16964530945, 2.623608827591
525, 10, 18.81308746338, 5
526, 10, 20.03763961792, 2.483910083771
527, 10, 18.75909805298, 0
528, 10, 21.44976806641, 5
529, 10, 22.94637107849, 2.500094652176
530, 10, 21.48656082153, 0
531, 10, 24.28848457336, 5
532, 10, 24.36463356018, 0
533, 10, 25.98273086548, 2.541264057159
534, -5.129034042358, 36.05917739868, 0
535, -1.429865241051, 36.46464538574, 0
536, -3.816478252411, -36.15691757202, 0
537, 1.835734009743, -36.63278579712, 0
538, 3.35771727562, 35.84699630737, 0
539, -8.78484249115, 38.05968475342, 0
540, -4.578716278076, 40.31888580322, 0
541, 10.96430397034, 50.15254211426, 0
542, -6.681397914886, -32.60093688965, 0
543, -3.246366977692, -32.42761611938, 0
544, -4.209272384644, -30, 0
545, -0.1860703825951, -33.16746139526, 0
546, -1.390576243401, -30, 0
547, 3.433801412582, -33.10459518433, 0
548, 1.581455349922, -30, 0
549, 4.417865276337, -30, 0
550, 6.513516902924, -32.42505645752, 0
551, -6.979281425476, 30, 0
552, -7.016003131866, 33.0712928772, 0
553, -3.140272140503, 32.94631958008, 0
554, -4.209272384644, 30, 0
555, 0.2472155690193, 32.9210357666, 0
556, -1.390576243401, 30, 0
557, 3.115290403366, 32.43249130249, 0
558, 1.581455349922, 30, 0
559, 4.417865276337, 30, 0
560, 6.136768817902, 32.84053421021, 0
561, -7.042902946472, -40.11061859131, 0
562, -6.704542160034, -50.09044265747, 0
563, -0.7702879905701, -40.55421829224, 0
564, -0.08510112017393, -50.20432662964, 0
565, -3.215258836746, -45, 0
566, 5.046780109406, -40.47428894043, 0
567, 6.352138996124, -49.94567489624, 0
568, 2.909476995468, -45, 0
569, 10.36437511444, -40.13866043091, 0
570, 7.049432277679, -35.85904312134, 0
571, 0.5989690423012, 40.54303741455, 0
572, 5.622268676758, 40.30146026611, 0
573, -11.05434322357, 50.13105773926, 0
574, -5.887678146362, 50.01211547852, 0
575, -3.215258836746, 45, 0
576, -0.1993012428284, 49.99432373047, 0
577, 2.909476995468, 45, 0
578, 5.567858219147, 50.11554718018, 0
579, 7.875396728516, 36.053150177, 0
580, 8.923096656799, 45, 0
581, 10.53276824951, 40.14794158936, 0
582, 3.863947868347, -36.03257369995, 5
583, -0.01274356804788, -33.70969390869, 5
584, -2.687535047531, 35.99633407593, 5
585, -3.747970104218, -36.03308486938, 5
586, 3.258961200714, 35.62797927856, 5
587, -11.07596588135, -49.97898864746, 5
588, 10.66592025757, -48.88795852661, 5
589, 10.89786624908, 50.26792144775, 5
590, 3.225409030914, -32.5620803833, 5
591, 1.516016840935, -30, 5
592, -3.0863032341, -32.5326385498, 5
593, -1.521805644035, -30, 5
594, -4.351860046387, -30, 5
595, -6.205333709717, -32.86490631104, 5
596, -2.900164365768, 32.47607803345, 5
597, 0.005195219535381, 32.8569984436, 5
598, -1.451860308647, 30, 5
599, 2.959433078766, 32.30704116821, 5
600, 1.579770207405, 30, 5
601, 5.600823402405, 32.52787017822, 5
602, 4.383938312531, 30, 5
603, 5.675207138062, -40.42207717896, 5
604, 0.05700027197599, -39.67472839355, 5
605, -5.594083309174, -40.43884277344, 5
606, -7.99859380722, -36.27760696411, 5
607, -10.61682510376, -40.38563156128, 5
608, -8.931839942932, -45, 5
609, -5.801647663116, -49.98816680908, 5
610, -2.926594018936, -45, 5
611, -0.06949138641357, -49.98368835449, 5
612, 2.926594018936, -45, 5
613, 5.672647953033, -49.70551681519, 5
614, 4.358197689056, -30, 5
615, 6.277495861053, -32.85123825073, 5
616, 8.120009422302, -36.23388290405, 5
617, 8.894778251648, -45, 5
618, 10.59906482697, -40.25361633301, 5
619, -7.973154067993, 36.40687942505, 5
620, -4.212080955505, 30, 5
621, -6.056562900543, 32.956615448, 5
622, 8.099726676941, 32.0283164978, 5
623, 7.804588317871, 34.9149017334, 5
624, -10.57217979431, 40.27029418945, 5
625, -5.340877532959, 40.49087142944, 5
626, 0.4179066419601, 40.41247558594, 5
627, 7.22491645813, 39.50429534912, 5
628, -6.594094753265, 49.92451858521, 5
629, -2.891436100006, 45, 5
630, -0.09343912452459, 49.79466247559, 5
631, 2.891436100006, 45, 5
632, 5.735286712646, 50.04510879517, 5
633, -10, -9.591547012329, 2.446312904358
634, -10, 10.61277484894, 2.268464326859
635, -10, -8.17407989502, 2.51398897171
636, -10, 12.4299030304, 2.668847560883
637, -10, -6.436413288116, 2.420650005341
638, -10, 13.56154632568, 1.3460303545
639, -10, -13.04566860199, 3.304906129837
640, -10, -10.92014312744, 3.287390947342
641, -10, -11.76589107513, 5
642, -10, -9.01556968689, 3.725386857986
643, -10, -9.851162910461, 5
644, -10, -7.2748503685, 3.754669904709
645, -10, -8.234108924866, 5
646, -10, 12.26137638092, 3.99448132515
647, -10, 10.84405517578, 3.702378749847
648, -10, 11.43892002106, 5
649, -10, 9.016633987427, 3.206425905228
650, -10, 9.829189300537, 5
651, -10, 8.219459533691, 5
652, -10, 6.995732784271, 3.2522585392
653, -10, 7.538018226624, 1.651262402534
654, -10, 9.228004455566, 1.407892465591
655, -10, 10.61082458496, 1.002953886986
656, -10, 12.00044822693, 1.232229709625
657, -10, 13.04864883423, 5
658, -10, 13.60456085205, 3.786807775497
659, -10, 13.90835380554, 2.607425689697
660, -10, -6.074792385101, 1.182699561119
661, -10, -7.445214748383, 1.201680421829
662, -10, -9.021632194519, 1.211405277252
663, -10, -10.64927387238, 1.420551419258
664, -10, -12.44550037384, 1.572227358818
665, 1.506417632103, 7.646650791168, 0
666, -1.73715865612, 8.14381313324, 0
667, -0.3531249463558, -8.27995967865, 0
668, -1.008351922035, -6.62033033371, 0
669, 1.34558391571, 8.789914131165, 0
670, -3.268206119537, -9.045643806458, 0
671, 0.01225718576461, 8.086818695068, 0
672, 1.631408810616, -8.400328636169, 0
673, -3.407955884933, 8.47562122345, 0
674, 0.8252090215683, -6.568543434143, 0
675, -0.9884196519852, 6.257779121399, 0
676, 2.747774362564, 8.32409954071, 0
677, 0.838995218277, 6.409553050995, 0
678, 2.700095891953, 6.794487476349, 0
679, 2.909339904785, -7.287895679474, 0
680, -1.118860721588, 4.300151824951, 0
681, -2.842522382736, 6.833312034607, 0
682, 3.663991689682, -9.354543685913, 0
683, 0.892794907093, -4.349866867065, 0
684, -1.870897531509, -9.274655342102, 0
685, -5.123644828796, 8.889360427856, 0
686, -2.499965906143, -7.593261241913, 0
687, -0.7863392233849, -5.018210411072, 0
688, 0.4401412606239, 4.776313781738, 0
689, 0.5993506908417, 9.803696632385, 0
690, 3.86900639534, 9.505637168884, 0
691, 2.15426158905, 9.85261631012, 0
692, 2.062309503555, -9.873400688171, 0
693, 0.6997899413109, -9.713233947754, 0
694, -0.2744075059891, 1.514442443848, 0
695, 0.108578749001, -1.336457252502, 0
696, -0.8128561973572, 0.001128650852479, 0
697, -6.083836078644, 10.03196907043, 0
698, -5.04426908493, 10.23406219482, 0
699, -3.853606700897, 9.904692649841, 0
700, -2.416115522385, 9.69806098938, 0
701, -0.8876773715019, 9.623388290405, 0
702, -0.6168902516365, -9.825186729431, 0
703, 5.599440097809, 9.376148223877, 0
704, 4.300940036774, 7.686490535736, 0
705, 0.1199755519629, 3.125423908234, 0
706, 2.462815284729, -5.466753959656, 0
707, 4.112442970276, -11.04567909241, 0
708, -1.361019730568, 2.669696807861, 0
709, -2.543887853622, 5.216892719269, 0
710, -4.574527740479, 7.334506511688, 0
711, -4.289431095123, -7.949119567871, 0
712, -0.6967254281044, -3.069319486618, 0
713, -2.369157314301, -5.756209850311, 0
714, 0.7511912584305, 0.2755579352379, 0
715, 2.217339277267, 5.202442646027, 0
716, 1.16906774044, -2.627700090408, 0
717, 1.268667340279, 1.892860651016, 0
718, -5.837462902069, -8.387246131897, 0
719, 4.76940536499, -7.774308681488, 0
720, 1.684320926666, 3.548711538315, 0
721, 6.194108963013, 10.97866439819, 0
722, 5.413722515106, -10.50371742249, 0
723, 2.813695430756, -11.00769138336, 0
724, -3.008342981339, -10.55545330048, 0
725, -4.580500602722, -9.921991348267, 0
726, 4.663581848145, 10.91761398315, 0
727, -6.236599445343, -10.1107416153, 0
728, -1.445063829422, -10.90968894958, 0
729, 1.370774030685, -11.1011133194, 0
730, -0.02504396811128, -11.07153129578, 0
731, -6.732623100281, 9.081302642822, 0
732, -5.818065166473, 11.26103019714, 0
733, -4.440804004669, 11.27494430542, 0
734, -3.071259975433, 11.12347984314, 0
735, -1.60912835598, 11.04452705383, 0
736, -0.120671287179, 11.07210063934, 0
737, 1.429838657379, 11.10873126984, 0
738, 3.066028833389, 11.04766178131, 0
739, 5.891939640045, 7.745868206024, 0
740, 5.48933839798, -9.121678352356, 0
741, -6.216602802277, 7.742164611816, 0
742, 4.167771816254, -6.112795352936, 0
743, 2.499778032303, -3.700163602829, 0
744, -1.813732624054, 1.182986497879, 0
745, -2.598236560822, 3.61275100708, 0
746, -7.65566444397, 8.193496704102, 0
747, -1.565320372581, -1.402891516685, 0
748, -4.150537014008, 5.742789268494, 0
749, -2.258069992065, -4.089962482452, 0
750, -3.977862596512, -6.328934192657, 0
751, 3.909899234772, 5.744431495667, 0
752, 1.773203253746, -0.9978880286217, 0
753, -5.615787982941, -6.628396034241, 0
754, -3.669644594193, -4.794651985168, 0
755, -2.451769113541, -2.545140981674, 0
756, -2.291794538498, -0.1365734785795, 0
757, -2.738545894623, 2.20888209343, 0
758, 6.780321598053, -8.185383796692, 0
759, 6.943564891815, 12.34325504303, 0
760, 5.90119934082, -6.502988815308, 0
761, 3.791305780411, -4.481313228607, 0
762, -5.839366436005, 6.187324047089, 0
763, 7.27738904953, 8.46378326416, 0
764, 2.353365898132, 0.6231842041016, 0
765, -7.357615947723, -8.713402748108, 0
766, 6.882682323456, -9.90746307373, 0
767, -3.804165363312, 4.351992607117, 0
768, 5.13902425766, -12.17559814453, 0
769, 3.678498744965, -12.36343097687, 0
770, 2.109493494034, -12.39857006073, 0
771, 0.6578713059425, -12.39865207672, 0
772, -0.8388864994049, -12.33027458191, 0
773, -2.362421035767, -12.1951007843, 0
774, -3.898357391357, -11.96067523956, 0
775, -5.519163608551, -11.87518882751, 0
776, 6.780755996704, -11.6216211319, 0
777, -7.260841369629, -11.79182052612, 0
778, -7.366362571716, 6.795618057251, 0
779, -7.88942861557, 9.502598762512, 0
780, -7.303062915802, 10.8654756546, 0
781, -7.785610198975, 12.49508285522, 0
782, -6.583314418793, 12.41612052917, 0
783, -5.206548690796, 12.49261283875, 0
784, -3.787767410278, 12.46833896637, 0
785, -2.344344615936, 12.40755271912, 0
786, -0.8587352633476, 12.39211177826, 0
787, 0.6907905936241, 12.39921092987, 0
788, 2.286076784134, 12.35285758972, 0
789, 3.879649400711, 12.32890605927, 0
790, 5.428867340088, 12.31938362122, 0
791, 7.455161094666, -6.793025970459, 0
792, 5.577158927917, 6.341110706329, 0
793, 3.481455802917, 4.044192790985, 0
794, 2.680733203888, -2.195908546448, 0
795, 2.844102621078, 2.303530693054, 0
796, 7.188095569611, 6.900036334991, 0
797, 7.539440631866, 11.18155860901, 0
798, 7.306554794312, 9.897252082825, 0
799, -7.134091377258, -7.126883029938, 0
800, -7.709815979004, -10.12779426575, 0
801, -7.035341262817, -5.585117340088, 0
802, -5.434591770172, -4.782823085785, 0
803, -7.138572692871, -4.10027217865, 0
804, -4.173147201538, -3.111191511154, 0
805, -6.040434360504, -3.05316901207, 0
806, -3.50669169426, -1.186830878258, 0
807, -5.283937931061, -1.660950899124, 0
808, -3.568315267563, 0.8459087014198, 0
809, -5.002886295319, -0.1698630750179, 0
810, -4.212275028229, 2.808025836945, 0
811, -5.182035446167, 1.336868047714, 0
812, -5.439439296722, 4.500891685486, 0
813, -5.938995838165, 2.91688990593, 0
814, -7.114970207214, 5.392800331116, 0
815, -7.000927448273, 4.000695705414, 0
816, 6.207741737366, -13.47585010529, 0
817, 4.596356868744, -13.62805271149, 0
818, 5.463450908661, -15, 0
819, 3.048734903336, -13.72089099884, 0
820, 3.951267957687, -15, 0
821, 1.475505590439, -13.71721553802, 0
822, 2.439085006714, -15, 0
823, -0.09434622526169, -13.68928813934, 0
824, 0.7421091794968, -15, 0
825, -1.650176882744, -13.628074646, 0
826, -0.9269018769264, -15, 0
827, -3.189979314804, -13.54273319244, 0
828, -2.439085006714, -15, 0
829, -4.735111713409, -13.46278572083, 0
830, -3.951267957687, -15, 0
831, -6.322875022888, -13.43569660187, 0
832, -5.463450908661, -15, 0
833, -6.975634098053, -15, 0
834, -7.937232494354, -13.56251621246, 0
835, 6.975634098053, -15, 0
836, 8.138648033142, -12.93923568726, 0
837, 8.413137435913, -10.93319797516, 0
838, 10, -11.76589107513, 0
839, 8.464468955994, -9.106313705444, 0
840, 10, -9.851162910461, 0
841, 8.591257095337, -7.565013885498, 0
842, 10, -8.234108924866, 0
843, -8.500227928162, 4.76976776123, 0
844, -8.640913963318, 6.029779434204, 0
845, -8.780213356018, 7.428206920624, 0
846, -8.911649703979, 8.885000228882, 0
847, -10, 8.219459533691, 0
848, -8.846515655518, 10.41328716278, 0
849, -10, 9.829189300537, 0
850, -8.876377105713, 11.95195198059, 0
851, -10, 11.43892002106, 0
852, -10, 13.04864883423, 0
853, -8.748408317566, 13.49266338348, 0
854, -7.41991519928, 13.72093486786, 0
855, -6.038463115692, 13.7315196991, 0
856, -6.975634098053, 15, 0
857, -4.598204612732, 13.73731040955, 0
858, -5.463450908661, 15, 0
859, -3.117844104767, 13.72410106659, 0
860, -3.951267957687, 15, 0
861, -1.626537680626, 13.70422267914, 0
862, -2.439085006714, 15, 0
863, -0.09309831261635, 13.70646476746, 0
864, -0.9269018769264, 15, 0
865, 1.483298182487, 13.7255191803, 0
866, 0.6857485771179, 15, 0
867, 3.152576446533, 13.69098567963, 0
868, 2.439085006714, 15, 0
869, 4.688653945923, 13.67220592499, 0
870, 3.951267957687, 15, 0
871, 6.230166912079, 13.65198230743, 0
872, 5.463450908661, 15, 0
873, 6.975634098053, 15, 0
874, 7.847352027893, 13.51010227203, 0
875, 8.648421287537, -6.057903766632, 0
876, 7.158380031586, -5.444711208344, 0
877, 5.54024887085, -4.633554935455, 0
878, 7.138572692871, -4.10027217865, 0
879, 4.20947265625, -2.879379749298, 0
880, 6.040434360504, -3.05316901207, 0
881, 3.577948331833, -0.7801713943481, 0
882, 5.198851585388, -1.396057367325, 0
883, 3.872823238373, 1.114671349525, 0
884, 5.001847267151, 0.1358984857798, 0
885, 4.421092033386, 2.78671002388, 0
886, 5.272758960724, 1.628861784935, 0
887, 5.322992324829, 4.446622371674, 0
888, 5.979016780853, 2.971816778183, 0
889, 7.047159194946, 5.451347351074, 0
890, 7.055578231812, 4.041086673737, 0
891, 8.568819999695, 6.089879512787, 0
892, 8.615946769714, 7.566690921783, 0
893, 8.659544944763, 9.086764335632, 0
894, 10, 8.219459533691, 0
895, 8.715850830078, 10.56771945953, 0
896, 10, 9.829189300537, 0
897, 8.549872398376, 12.08256721497, 0
898, 10, 11.43892002106, 0
899, -8.554870605469, -6.133515357971, 0
900, -8.680111885071, -7.592735290527, 0
901, -10, -6.560117721558, 0
902, -8.794666290283, -9.222601890564, 0
903, -10, -8.120235443115, 0
904, -8.800575256348, -10.7912902832, 0
905, -10, -9.92810344696, 0
906, -8.838306427002, -12.28734111786, 0
907, -10, -11.53814411163, 0
908, -10, -6.617054462433, 5
909, -10, -5, 5
910, -10, -5, 3.44720697403
911, -8.509957313538, -4.772815704346, 5
912, -10, -5, 1.89441382885
913, -10, -5, 0
914, -8.500228881836, -4.769768238068, 0
915, -10, -15, 1.567442178726
916, -10, -13.3829460144, 5
917, -10, -15, 3.432557821274
918, -10, -15, 5
919, -8.487816810608, -15, 5
920, -10, -16.67844963074, 5
921, 10, -13.3829460144, 5
922, 8.487816810608, -15, 5
923, 10, 13.39027023315, 5
924, -8.509955406189, 4.772815227509, 5
925, 10, -15, 1.567442178726
926, 10, -15, 5
927, 10, -15, 3.432557821274
928, 10, -16.64191627502, 5
929, -10, 6.609729766846, 5
930, -10, 5, 5
931, -10, 5, 3.44720697403
932, 10, -13.3829460144, 0
933, 10, -15, 0
934, 8.487816810608, -15, 0
935, 10, -16.62064552307, 0
936, -10, -16.68307495117, 0
937, -10, -15, 0
938, -8.487816810608, -15, 0
939, -10, -13.43988227844, 0
940, -10, 5, 1.89441382885
941, -10, 5, 0
942, -10, 6.609729766846, 0
943, 10, -6.617054462433, 0
944, 10, -6.617054462433, 5
945, 10, -5, 5
946, 10, -5, 3.432557821274
947, 10, -5, 0
948, 10, -5, 1.567442178726
949, 8.500228881836, -4.769768238068, 0
950, 10, 5, 5
951, 10, 5, 3.44720697403
952, 8.45814704895, 4.756331443787, 5
953, 8.500227928162, 4.76976776123, 0
954, 10, 5, 0
955, 10, 5, 1.89441382885
956, 10, 6.609729766846, 0
957, -10, 15, 3.44720697403
958, -10, 15, 1.89441382885
959, -10, 15, 0
960, -8.487816810608, 15, 0
961, -10, 16.62468147278, 0
962, 10, 13.04864883423, 0
963, 8.487816810608, 15, 0
964, -8.487816810608, 15, 5
965, -10, 15, 5
966, -10, 16.59021949768, 5
967, 8.487816810608, 15, 5
968, 10, 15, 0
969, 10, 15, 1.89441382885
970, 10, 16.59021949768, 0
971, 10, 15, 3.44720697403
972, 10, 15, 5
973, 10, 16.61073112488, 5
974, -10, -27.13964653015, 0
975, -6.979281425476, -30, 0
976, 7.176125526428, -30, 5
977, -7.176125526428, -30, 5
978, -10, -27.21757316589, 5
979, -10, -30, 5
980, -10, -30, 0
981, -10, -30, 2.521973609924
982, 7.208932876587, -30, 0
983, 10, -27.26540184021, 5
984, 10, -27.31101036072, 0
985, 10, -30, 5
986, 10, -30, 2.488157272339
987, 10, -30, 0
988, -10, 27.12099075317, 0
989, -10, 27.23762321472, 5
990, -10, 30, 2.700038909912
991, -10, 30, 0
992, 7.208455085754, 30, 5
993, 10, 27.1704788208, 5
994, 7.208932876587, 30, 0
995, 10, 27.23762321472, 0
996, -7.243711471558, 30, 5
997, -10, 30, 5
998, 10, 30, 0
999, 10, 30, 2.488157272339
1000, 10, 30, 5
1001, -15, -50.41063308716, 0
1002, -10.32859230042, -32.5424156189, 5
1003, -11.14270496368, -34.6420173645, 0
1004, -11.92080593109, -35.89292907715, 5
1005, -9.100921630859, -55, 0
1006, -15, -55, 0
1007, -15, -55, 5
1008, -3.215258836746, -55, 0
1009, -9.100921630859, -55, 5
1010, 2.582509279251, -55, 0
1011, -3.215258836746, -55, 5
1012, 2.909476995468, -55, 5
1013, 8.923096656799, -55, 0
1014, 8.923096656799, -45, 0
1015, 15, -49.50217437744, 0
1016, 8.923096656799, -55, 5
1017, -9.181045532227, -45, 0
1018, 10.30107021332, -32.43531417847, 5
1019, 10.29060554504, -32.39325714111, 0
1020, 11.84049987793, -35.78122329712, 5
1021, 15, -50.0969543457, 5
1022, 15, -55, 0
1023, 15, -55, 5
1024, 11.86802768707, -35.81988143921, 0
1025, -10.33748435974, 32.57600021362, 5
1026, -11.07995223999, 34.52025985718, 0
1027, -11.92531013489, 35.89910125732, 5
1028, 15, 50.40007781982, 5
1029, -9.181045532227, 45, 0
1030, -8.866686820984, 45, 5
1031, -15, 50.0439453125, 5
1032, -15, 50.36875152588, 0
1033, -15, 55, 0
1034, -9.100921630859, 55, 0
1035, -15, 55, 5
1036, -3.215258836746, 55, 0
1037, -9.100921630859, 55, 5
1038, 2.582509279251, 55, 0
1039, -3.215258836746, 55, 5
1040, 2.909476995468, 55, 5
1041, 8.923096656799, 55, 5
1042, 8.923096656799, 55, 0
1043, 15, 55, 0
1044, 15, 55, 5
1045, 10.29122543335, 32.39576339722, 0
1046, 10.29122543335, 32.39576339722, 5
1047, 11.78750991821, 35.70569992065, 0
1048, 11.78750991821, 35.70569992065, 5
1049, 9.004784584045, 45, 5
1050, 15, 50.36875152588, 0
1051, 15, 45, 5
1052, 15, 45, 0
1053, 15, 38.66025543213, 0
1054, 15, 38.66025543213, 5
1055, -15, 45, 0
1056, -15, 38.66025543213, 0
1057, -15, 45, 5
1058, -15, 38.66025543213, 5
1059, 15, -38.66025543213, 0
1060, 15, -38.66025543213, 5
1061, 15, -45, 0
1062, 15, -45, 5
1063, -15, -38.66025543213, 0
1064, -15, -45, 0
1065, -15, -38.66025543213, 5
1066, -15, -45, 5
1067, -3.322008083633, 1.145583987295, 2.43133034518
1068, 0.8304951262937, 15.8563122262, 2.414843969307
1069, 2.080810971373, -6.310382157164, 3.171840434484
1070, -5.415300474216, 14.41222551334, 2.99188030247
1071, -6.152867311701, -12.88722864979, 2.61817117681
1072, 6.835514715535, 13.95818767888, 3.046746634373
1073, -2.430318454819, -14.10054964633, 1.963357383994
1074, 4.612257996605, -12.49093782953, 2.506577131015
1075, 3.921588124174, 15.85625399485, 2.334027221474
1076, -5.105174927867, -16.62825002508, 1.705241706467
1077, 7.703335142005, -13.7360915136, 2.359346658092
1078, -0.7469033816742, 8.682374873366, 2.323918536009
1079, -3.009450360093, 10.5227684725, 2.868455175228
1080, 6.176340476874, 12.65378290876, 2.583932449954
1081, -6.493283214232, -14.77786178038, 3.183032417974
1082, -7.789268216867, 7.027529318772, 2.340095594311
1083, 2.406867634804, -17.83033946276, 2.465928920253
1084, 9.171894996149, -8.251224246032, 4.073609168075
1085, -2.438135378362, 26.09589380425, 2.335394675227
1086, 1.093284632638, -14.47358997281, 2.550969739537
1087, 0.6229762350003, 3.511244817627, 2.892058262317
1088, -5.202662776474, 11.4626400034, 2.501981151888
1089, -5.235023479457, 9.669837181756, 2.157570564871
1090, 0.3848324473142, 1.873553960192, 2.882971291882
1091, 4.669282425959, -15.86804979465, 2.174149796743
1092, 5.861413589743, -11.7389492862, 2.313143192706
1093, -1.02983983627, -11.50950426625, 2.227065304833
1094, 5.846470899563, 6.470135546111, 3.205137683565
1095, 1.703466431439, 6.471200934759, 2.25282971095
1096, -4.334133500637, -3.574149018461, 2.49969639538
1097, 8.026476898121, 16.85793712253, 2.594400573368
1098, 7.533800241355, -6.708945109474, 2.33946420421
1099, 3.726108352716, -8.187622995515, 2.444434505244


** Volume elements
*Element, TYPE=C3D4, ELSET=Evolumes
5321, 566, 570, 582, 603
5322, 499, 374, 286, 501
5323, 142, 723, 143, 770
5324, 97, 729, 692, 723
5325, 1013, 1016, 567, 1012
5326, 499, 374, 375, 286
5327, 584, 621, 619, 534
5328, 611, 565, 564, 609
5329, 499, 374, 306, 375
5330, 611, 565, 568, 564
5331, 942, 940, 18, 653
5332, 1049, 1052, 581, 580
5333, 818, 816, 187, 1077
5334, 856, 461, 379, 958
5335, 499, 374, 501, 306
5336, 39, 228, 40, 22
5337, 838, 840, 837, 258
5338, 334, 377, 437, 335
5339, 846, 746, 779, 654
5340, 119, 132, 224, 37
5341, 96, 67, 692, 693
5342, 154, 634, 780, 779
5343, 846, 746, 654, 653
5344, 119, 132, 37, 28
5345, 608, 561, 565, 1017
5346, 396, 402, 295, 401
5347, 394, 293, 309, 292
5348, 38, 132, 37, 224
5349, 608, 561, 605, 565
5350, 295, 396, 297, 303
5351, 634, 154, 649, 779
5352, 468, 469, 862, 864
5353, 613, 564, 567, 1010
5354, 818, 816, 1077, 835
5355, 1042, 632, 589, 1041
5356, 132, 38, 37, 28
5357, 75, 736, 102, 116
5358, 187, 818, 1077, 459
5359, 569, 570, 566, 603
5360, 608, 561, 607, 605
5361, 751, 887, 22, 793
5362, 867, 242, 865, 788
5363, 608, 561, 1017, 607
5364, 365, 430, 429, 482
5365, 555, 535, 597, 586
5366, 242, 867, 865, 868
5367, 365, 430, 326, 429
5368, 365, 430, 366, 326
5369, 365, 430, 482, 366
5370, 948, 875, 269, 25
5371, 23, 948, 269, 25
5372, 550, 570, 1019, 616
5373, 159, 758, 109, 1098
5374, 1022, 1021, 1015, 588
5375, 24, 796, 20, 135
5376, 841, 875, 791, 269
5377, 25, 23, 791, 269
5378, 765, 111, 134, 727
5379, 875, 25, 791, 269
5380, 585, 592, 583, 545
5381, 417, 330, 455, 436
5382, 504, 526, 528, 505
5383, 860, 467, 857, 859
5384, 159, 1098, 109, 160
5385, 765, 111, 126, 134
5386, 426, 368, 441, 480
5387, 368, 614, 441, 480
5388, 673, 666, 57, 681
5389, 796, 889, 20, 792
5390, 368, 426, 327, 480
5391, 367, 368, 327, 480
5392, 1050, 541, 1052, 1051
5393, 62, 125, 88, 749
5394, 765, 111, 718, 126
5395, 765, 111, 727, 718
5396, 745, 810, 15, 767
5397, 65, 702, 66, 95
5398, 24, 232, 234, 135
5399, 282, 489, 486, 488
5400, 1042, 632, 578, 589
5401, 993, 533, 531, 503
5402, 955, 24, 273, 891
5403, 956, 955, 273, 891
5404, 24, 232, 41, 234
5405, 796, 24, 891, 273
5406, 260, 758, 159, 1098
5407, 1042, 632, 1040, 578
5408, 611, 565, 610, 568
5409, 611, 565, 609, 610
5410, 24, 232, 20, 41
5411, 155, 154, 105, 731
5412, 157, 751, 22, 793
5413, 260, 1098, 159, 160
5414, 24, 232, 135, 20
5415, 940, 941, 942, 18
5416, 975, 483, 364, 484
5417, 980, 542, 981, 1003
5418, 40, 41, 232, 233
5419, 802, 753, 152, 128
5420, 975, 483, 594, 364
5421, 713, 51, 686, 668
5422, 271, 234, 272, 950
5423, 755, 4, 161, 13
5424, 755, 749, 88, 161
5425, 142, 184, 771, 770
5426, 713, 51, 89, 686
5427, 9, 156, 1, 19
5428, 293, 394, 408, 391
5429, 178, 833, 915, 834
5430, 112, 780, 163, 732
5431, 713, 51, 62, 89
5432, 1057, 1030, 573, 1031
5433, 1057, 1029, 573, 1030
5434, 280, 360, 363, 362
5435, 47, 82, 79, 673
5436, 713, 51, 668, 62
5437, 101, 726, 107, 721
5438, 205, 202, 203, 7
5439, 101, 726, 78, 107
5440, 1042, 632, 1041, 1040
5441, 760, 758, 791, 1098
5442, 315, 403, 316, 296
5443, 975, 483, 977, 594
5444, 723, 97, 98, 682
5445, 612, 1014, 603, 617
5446, 101, 726, 703, 78
5447, 975, 483, 484, 977
5448, 154, 649, 155, 210
5449, 62, 125, 749, 713
5450, 469, 861, 240, 239
5451, 865, 863, 241, 866
5452, 599, 559, 557, 601
5453, 387, 526, 527, 530
5454, 478, 355, 1097, 873
5455, 27, 28, 881, 794
5456, 599, 559, 558, 557
5457, 976, 496, 983, 986
5458, 101, 726, 721, 703
5459, 1097, 355, 356, 873
5460, 765, 134, 633, 800
5461, 67, 693, 672, 692
5462, 315, 419, 334, 348
5463, 506, 478, 1097, 873
5464, 599, 559, 602, 558
5465, 60, 118, 742, 81
5466, 506, 507, 1097, 478
5467, 1008, 609, 1009, 1011
5468, 612, 1014, 568, 603
5469, 2, 193, 194, 195
5470, 599, 559, 601, 602
5471, 857, 467, 239, 859
5472, 507, 478, 428, 1097
5473, 423, 474, 472, 352
5474, 504, 388, 503, 529
5475, 326, 366, 328, 430
5476, 327, 427, 291, 328
5477, 618, 1014, 569, 1061
5478, 958, 638, 959, 960
5479, 785, 102, 735, 786
5480, 154, 780, 112, 697
5481, 784, 165, 734, 785
5482, 711, 55, 71, 670
5483, 612, 1014, 613, 568
5484, 618, 1014, 603, 569
5485, 1008, 609, 562, 1009
5486, 618, 1014, 617, 603
5487, 618, 1014, 1061, 617
5488, 1016, 1013, 567, 588
5489, 612, 1014, 617, 613
5490, 99, 55, 71, 711
5491, 1008, 609, 564, 562
5492, 121, 15, 767, 745
5493, 137, 727, 725, 775
5494, 137, 727, 111, 725
5495, 91, 99, 71, 711
5496, 1008, 609, 1011, 564
5497, 147, 256, 247, 213
5498, 103, 751, 157, 90
5499, 496, 329, 370, 369
5500, 613, 1010, 567, 1012
5501, 318, 421, 317, 351
5502, 927, 460, 925, 522
5503, 137, 727, 136, 111
5504, 725, 71, 93, 670
5505, 20, 751, 887, 22
5506, 454, 819, 822, 821
5507, 318, 421, 398, 317
5508, 787, 863, 241, 865
5509, 121, 15, 7, 767
5510, 318, 421, 422, 398
5511, 1035, 1031, 1032, 573
5512, 1029, 628, 573, 1030
5513, 696, 85, 73, 72
5514, 163, 780, 782, 732
5515, 318, 421, 351, 422
5516, 681, 675, 666, 57
5517, 630, 578, 1040, 632
5518, 1077, 818, 835, 459
5519, 62, 48, 51, 668
5520, 666, 675, 42, 57
5521, 594, 543, 593, 592
5522, 594, 543, 544, 593
5523, 344, 832, 1076, 830
5524, 42, 675, 45, 57
5525, 432, 322, 407, 433
5526, 212, 9, 156, 206
5527, 341, 312, 414, 313
5528, 1097, 355, 320, 356
5529, 594, 543, 595, 544
5530, 114, 165, 166, 785
5531, 83, 45, 680, 675
5532, 83, 675, 680, 709
5533, 594, 543, 592, 595
5534, 832, 1076, 830, 444
5535, 164, 783, 238, 165
5536, 164, 237, 238, 783
5537, 358, 361, 281, 282
5538, 733, 165, 734, 784
5539, 297, 422, 318, 319
5540, 314, 409, 439, 504
5541, 700, 701, 735, 77
5542, 52, 666, 42, 57
5543, 297, 422, 398, 318
5544, 387, 504, 505, 526
5545, 297, 422, 399, 398
5546, 167, 863, 786, 240
5547, 409, 314, 439, 402
5548, 737, 64, 115, 116
5549, 991, 381, 551, 990
5550, 32, 955, 953, 891
5551, 358, 360, 324, 433
5552, 119, 716, 70, 695
5553, 1076, 443, 830, 444
5554, 706, 56, 117, 743
5555, 977, 594, 595, 975
5556, 737, 64, 691, 115
5557, 737, 64, 689, 691
5558, 381, 991, 988, 990
5559, 737, 64, 116, 689
5560, 534, 552, 619, 539
5561, 797, 276, 895, 277
5562, 297, 422, 319, 399
5563, 508, 989, 997, 990
5564, 550, 614, 549, 590
5565, 710, 106, 145, 100
5566, 92, 78, 690, 726
5567, 999, 533, 389, 995
5568, 335, 499, 437, 408
5569, 729, 96, 730, 141
5570, 629, 628, 630, 574
5571, 422, 319, 352, 318
5572, 27, 879, 743, 794
5573, 83, 45, 675, 57
5574, 96, 693, 95, 66
5575, 214, 263, 247, 248
5576, 133, 169, 738, 92
5577, 422, 319, 423, 352
5578, 422, 319, 399, 423
5579, 159, 740, 108, 109
5580, 121, 15, 150, 7
5581, 957, 659, 958, 463
5582, 159, 740, 766, 108
5583, 49, 667, 66, 51
5584, 96, 67, 693, 66
5585, 119, 132, 752, 73
5586, 159, 740, 758, 766
5587, 425, 330, 436, 494
5588, 132, 752, 73, 714
5589, 316, 403, 290, 296
5590, 420, 468, 350, 421
5591, 4, 198, 196, 161
5592, 433, 404, 324, 407
5593, 433, 358, 486, 488
5594, 149, 200, 122, 6
5595, 159, 740, 109, 758
5596, 432, 322, 332, 407
5597, 709, 83, 675, 681
5598, 121, 15, 745, 150
5599, 695, 119, 73, 70
5600, 228, 157, 793, 123
5601, 695, 70, 73, 85
5602, 712, 687, 88, 749
5603, 616, 1020, 1024, 1019
5604, 550, 614, 976, 549
5605, 10, 803, 11, 801
5606, 35, 130, 36, 21
5607, 599, 555, 597, 586
5608, 687, 62, 88, 749
5609, 398, 403, 391, 290
5610, 409, 389, 513, 503
5611, 494, 516, 371, 519
5612, 432, 332, 413, 407
5613, 336, 314, 439, 504
5614, 494, 516, 495, 371
5615, 127, 249, 189, 254
5616, 533, 389, 995, 532
5617, 514, 496, 370, 369
5618, 900, 660, 661, 637
5619, 919, 918, 177, 917
5620, 900, 660, 901, 661
5621, 629, 571, 631, 626
5622, 1057, 1029, 1030, 624
5623, 900, 660, 899, 901
5624, 243, 869, 244, 789
5625, 598, 511, 383, 556
5626, 494, 516, 518, 495
5627, 34, 26, 129, 35
5628, 969, 970, 356, 524
5629, 133, 243, 244, 789
5630, 900, 660, 637, 899
5631, 550, 614, 615, 976
5632, 550, 614, 590, 615
5633, 249, 251, 189, 252
5634, 251, 170, 189, 172
5635, 617, 1061, 588, 1014
5636, 45, 680, 675, 688
5637, 664, 906, 939, 907
5638, 642, 176, 635, 644
5639, 642, 176, 175, 635
5640, 642, 176, 645, 175
5641, 642, 176, 644, 645
5642, 187, 1077, 188, 459
5643, 248, 776, 158, 766
5644, 927, 256, 925, 459
5645, 47, 700, 666, 673
5646, 52, 700, 666, 47
5647, 249, 170, 189, 251
5648, 934, 836, 925, 932
5649, 148, 2, 193, 128
5650, 248, 776, 247, 158
5651, 28, 752, 881, 794
5652, 496, 514, 370, 516
5653, 522, 519, 372, 523
5654, 494, 516, 519, 518
5655, 301, 289, 291, 406
5656, 748, 151, 145, 1
5657, 387, 439, 336, 304
5658, 300, 288, 400, 289
5659, 387, 439, 504, 336
5660, 332, 1076, 432, 443
5661, 248, 776, 837, 247
5662, 54, 48, 683, 56
5663, 608, 562, 565, 609
5664, 332, 1076, 343, 344
5665, 68, 672, 682, 692
5666, 248, 776, 766, 837
5667, 806, 804, 13, 807
5668, 289, 300, 291, 400
5669, 784, 857, 239, 859
5670, 863, 861, 786, 240
5671, 681, 83, 675, 57
5672, 427, 406, 291, 400
5673, 169, 242, 788, 168
5674, 606, 1002, 1003, 1004
5675, 687, 54, 712, 88
5676, 343, 1076, 332, 443
5677, 127, 249, 798, 797
5678, 387, 439, 505, 504
5679, 63, 673, 79, 82
5680, 387, 439, 304, 505
5681, 209, 646, 647, 648
5682, 571, 540, 535, 626
5683, 578, 577, 631, 630
5684, 343, 1076, 830, 344
5685, 830, 1076, 343, 443
5686, 254, 191, 162, 250
5687, 208, 209, 648, 646
5688, 789, 869, 244, 790
5689, 254, 191, 190, 162
5690, 2, 911, 192, 193
5691, 729, 97, 142, 723
5692, 254, 191, 270, 190
5693, 100, 709, 151, 748
5694, 893, 798, 275, 276
5695, 228, 40, 230, 231
5696, 254, 191, 250, 270
5697, 275, 798, 254, 276
5698, 489, 492, 488, 282
5699, 579, 1048, 623, 1046
5700, 636, 208, 646, 209
5701, 636, 646, 647, 209
5702, 1076, 442, 443, 444
5703, 100, 709, 83, 151
5704, 100, 709, 681, 83
5705, 586, 579, 627, 623
5706, 579, 1048, 627, 623
5707, 100, 709, 748, 681
5708, 360, 485, 280, 363
5709, 545, 585, 537, 583
5710, 708, 150, 86, 121
5711, 586, 579, 538, 627
5712, 579, 1048, 1046, 1047
5713, 377, 499, 437, 335
5714, 725, 111, 93, 71
5715, 586, 579, 560, 538
5716, 280, 485, 484, 363
5717, 373, 935, 522, 523
5718, 497, 377, 437, 334
5719, 373, 460, 457, 436
5720, 462, 418, 464, 347
5721, 54, 687, 62, 88
5722, 514, 496, 983, 515
5723, 234, 24, 951, 41
5724, 496, 329, 435, 370
5725, 936, 346, 915, 283
5726, 693, 49, 67, 672
5727, 302, 324, 407, 298
5728, 586, 579, 623, 560
5729, 693, 49, 66, 67
5730, 693, 49, 667, 66
5731, 981, 484, 975, 363
5732, 1064, 607, 1017, 1063
5733, 875, 947, 948, 943
5734, 484, 485, 431, 363
5735, 52, 1078, 44, 42
5736, 297, 396, 392, 399
5737, 449, 340, 312, 341
5738, 382, 554, 510, 383
5739, 462, 464, 858, 347
5740, 347, 464, 858, 348
5741, 693, 49, 672, 667
5742, 125, 754, 152, 1096
5743, 162, 798, 254, 763
5744, 681, 82, 100, 57
5745, 681, 82, 710, 100
5746, 681, 82, 673, 710
5747, 281, 485, 486, 487
5748, 977, 1002, 981, 595
5749, 38, 28, 764, 29
5750, 28, 883, 764, 29
5751, 133, 169, 243, 789
5752, 125, 1096, 152, 196
5753, 681, 82, 57, 673
5754, 155, 731, 746, 779
5755, 435, 331, 333, 301
5756, 438, 319, 303, 321
5757, 435, 331, 495, 333
5758, 435, 331, 425, 495
5759, 460, 927, 928, 522
5760, 928, 521, 493, 522
5761, 429, 364, 365, 483
5762, 435, 331, 301, 425
5763, 695, 716, 70, 712
5764, 22, 885, 30, 29
5765, 429, 364, 305, 365
5766, 22, 885, 887, 30
5767, 22, 885, 793, 887
5768, 749, 125, 88, 161
5769, 429, 364, 431, 305
5770, 755, 13, 161, 124
5771, 438, 319, 399, 303
5772, 7, 151, 1, 8
5773, 1014, 1015, 1061, 588
5774, 317, 420, 350, 421
5775, 22, 885, 29, 793
5776, 429, 364, 483, 431
5777, 794, 117, 80, 743
5778, 781, 854, 236, 782
5779, 251, 797, 170, 759
5780, 438, 319, 424, 399
5781, 74, 69, 690, 676
5782, 804, 1096, 4, 12
5783, 958, 960, 961, 379
5784, 251, 797, 249, 170
5785, 1096, 804, 754, 12
5786, 263, 265, 215, 266
5787, 438, 319, 321, 424
5788, 427, 426, 480, 327
5789, 251, 797, 277, 249
5790, 984, 986, 514, 369
5791, 427, 328, 481, 430
5792, 122, 708, 86, 694
5793, 794, 117, 131, 80
5794, 285, 497, 284, 377
5795, 794, 117, 27, 131
5796, 122, 708, 1067, 86
5797, 856, 958, 379, 960
5798, 899, 10, 801, 914
5799, 9, 206, 924, 207
5800, 794, 117, 743, 27
5801, 638, 853, 959, 960
5802, 608, 565, 610, 609
5803, 526, 387, 529, 530
5804, 403, 293, 296, 408
5805, 848, 850, 851, 655
5806, 122, 708, 744, 1067
5807, 634, 649, 654, 779
5808, 514, 984, 370, 517
5809, 447, 449, 341, 450
5810, 122, 708, 694, 744
5811, 496, 514, 516, 515
5812, 514, 984, 369, 370
5813, 665, 678, 1095, 677
5814, 747, 696, 756, 85
5815, 1029, 540, 575, 625
5816, 251, 797, 759, 277
5817, 1056, 1029, 1057, 624
5818, 471, 351, 1068, 864
5819, 46, 1095, 58, 90
5820, 403, 293, 290, 296
5821, 739, 104, 704, 1094
5822, 68, 67, 672, 692
5823, 9, 212, 19, 931
5824, 1056, 1057, 1029, 1055
5825, 403, 293, 391, 290
5826, 162, 191, 135, 250
5827, 796, 250, 135, 273
5828, 403, 293, 408, 391
5829, 724, 65, 728, 684
5830, 739, 1094, 704, 792
5831, 345, 432, 442, 491
5832, 24, 796, 135, 273
5833, 617, 1061, 1062, 588
5834, 756, 13, 14, 806
5835, 1001, 562, 587, 1005
5836, 1013, 1022, 1015, 588
5837, 1052, 1054, 1049, 581
5838, 1052, 1049, 1054, 1051
5839, 491, 345, 357, 346
5840, 756, 13, 5, 14
5841, 545, 585, 543, 536
5842, 295, 402, 310, 401
5843, 533, 999, 513, 993
5844, 234, 273, 24, 135
5845, 552, 1026, 619, 539
5846, 756, 13, 124, 5
5847, 143, 723, 769, 770
5848, 471, 351, 470, 1068
5849, 213, 256, 262, 261
5850, 606, 542, 1002, 595
5851, 104, 135, 1094, 739
5852, 788, 169, 738, 789
5853, 981, 980, 974, 975
5854, 1003, 607, 1004, 1063
5855, 97, 68, 98, 682
5856, 751, 20, 887, 792
5857, 804, 802, 12, 805
5858, 677, 1095, 671, 46
5859, 104, 135, 153, 1094
5860, 276, 898, 895, 277
5861, 114, 166, 102, 785
5862, 136, 800, 134, 727
5863, 896, 898, 895, 276
5864, 136, 800, 640, 134
5865, 671, 1095, 677, 665
5866, 136, 800, 777, 640
5867, 584, 534, 619, 625
5868, 65, 702, 728, 684
5869, 136, 800, 727, 777
5870, 944, 33, 268, 217
5871, 709, 745, 680, 121
5872, 767, 745, 709, 121
5873, 438, 439, 303, 396
5874, 46, 671, 677, 42
5875, 899, 10, 914, 660
5876, 712, 80, 54, 683
5877, 46, 671, 42, 43
5878, 460, 835, 457, 459
5879, 849, 848, 851, 655
5880, 155, 649, 211, 210
5881, 671, 1095, 43, 46
5882, 100, 151, 145, 748
5883, 43, 1095, 671, 665
5884, 447, 341, 342, 450
5885, 43, 1095, 58, 46
5886, 438, 303, 304, 321
5887, 447, 449, 414, 341
5888, 395, 302, 390, 288
5889, 712, 80, 70, 54
5890, 736, 787, 116, 737
5891, 228, 40, 157, 230
5892, 471, 351, 468, 470
5893, 309, 1085, 384, 383
5894, 1030, 1029, 625, 624
5895, 384, 1085, 309, 411
5896, 1056, 1029, 624, 539
5897, 696, 85, 72, 122
5898, 601, 557, 560, 559
5899, 556, 554, 596, 553
5900, 708, 694, 705, 86
5901, 712, 80, 716, 70
5902, 886, 885, 30, 888
5903, 927, 922, 188, 459
5904, 712, 80, 683, 716
5905, 913, 899, 914, 660
5906, 1001, 1007, 1005, 587
5907, 1001, 1005, 1007, 1006
5908, 10, 912, 660, 637
5909, 431, 484, 363, 364
5910, 919, 177, 178, 917
5911, 540, 629, 575, 625
5912, 384, 1085, 511, 383
5913, 225, 222, 37, 36
5914, 617, 1061, 618, 1062
5915, 91, 725, 111, 718
5916, 91, 725, 71, 111
5917, 511, 1085, 384, 411
5918, 162, 703, 101, 798
5919, 317, 351, 421, 350
5920, 84, 740, 109, 108
5921, 467, 464, 466, 348
5922, 91, 725, 711, 71
5923, 740, 84, 109, 719
5924, 471, 351, 864, 468
5925, 222, 223, 35, 36
5926, 91, 725, 718, 711
5927, 1042, 1044, 589, 1043
5928, 511, 1085, 510, 383
5929, 566, 563, 604, 537
5930, 535, 584, 553, 597
5931, 1049, 572, 581, 627
5932, 38, 227, 226, 224
5933, 510, 1085, 511, 411
5934, 217, 216, 160, 268
5935, 248, 758, 159, 260
5936, 621, 534, 552, 619
5937, 39, 29, 793, 22
5938, 120, 132, 73, 714
5939, 1009, 1008, 1005, 562
5940, 198, 5, 124, 161
5941, 248, 758, 766, 159
5942, 950, 234, 951, 952
5943, 353, 1075, 870, 354
5944, 5, 4, 13, 161
5945, 667, 686, 51, 668
5946, 43, 64, 669, 44
5947, 922, 213, 261, 188
5948, 198, 4, 5, 161
5949, 562, 587, 1005, 1009
5950, 424, 438, 428, 321
5951, 90, 715, 157, 123
5952, 431, 483, 484, 364
5953, 248, 758, 839, 766
5954, 31, 30, 22, 887
5955, 449, 824, 340, 341
5956, 562, 587, 1009, 609
5957, 1007, 1066, 587, 1001
5958, 671, 1078, 666, 42
5959, 200, 150, 122, 6
5960, 584, 596, 553, 597
5961, 293, 394, 391, 292
5962, 367, 427, 327, 328
5963, 176, 644, 645, 908
5964, 564, 1010, 611, 1011
5965, 97, 67, 68, 692
5966, 382, 381, 509, 551
5967, 1078, 52, 666, 42
5968, 812, 16, 815, 813
5969, 296, 335, 437, 408
5970, 888, 30, 31, 887
5971, 555, 535, 553, 597
5972, 826, 450, 342, 341
5973, 1049, 572, 580, 581
5974, 1049, 572, 631, 580
5975, 103, 751, 704, 792
5976, 630, 628, 1039, 574
5977, 809, 811, 14, 808
5978, 475, 474, 1075, 868
5979, 885, 30, 888, 887
5980, 1030, 1029, 575, 625
5981, 397, 332, 298, 407
5982, 846, 848, 849, 654
5983, 834, 664, 639, 777
5984, 248, 758, 260, 839
5985, 136, 178, 639, 777
5986, 664, 834, 639, 915
5987, 818, 187, 458, 459
5988, 106, 710, 762, 741
5989, 397, 332, 313, 298
5990, 863, 787, 167, 786
5991, 397, 332, 413, 313
5992, 1027, 1025, 1026, 619
5993, 1028, 1043, 589, 1044
5994, 915, 178, 639, 917
5995, 957, 461, 958, 284
5996, 234, 250, 272, 273
5997, 468, 862, 350, 864
5998, 476, 424, 428, 321
5999, 1049, 572, 627, 631
6000, 629, 1030, 575, 625
6001, 474, 475, 1075, 477
6002, 397, 332, 407, 413
6003, 403, 296, 437, 408
6004, 234, 250, 191, 272
6005, 162, 739, 703, 763
6006, 855, 782, 783, 237
6007, 969, 278, 874, 963
6008, 556, 555, 553, 597
6009, 556, 553, 596, 597
6010, 439, 438, 304, 505
6011, 234, 250, 135, 191
6012, 865, 242, 241, 168
6013, 234, 250, 273, 135
6014, 511, 440, 384, 385
6015, 462, 461, 856, 463
6016, 529, 388, 532, 530
6017, 761, 36, 27, 117
6018, 512, 386, 559, 602
6019, 104, 739, 704, 703
6020, 163, 781, 236, 782
6021, 512, 386, 385, 559
6022, 533, 388, 503, 389
6023, 570, 616, 1024, 1019
6024, 1, 767, 812, 748
6025, 868, 1075, 870, 353
6026, 542, 543, 544, 595
6027, 365, 593, 544, 546
6028, 543, 542, 536, 595
6029, 585, 543, 536, 595
6030, 228, 39, 40, 231
6031, 593, 543, 544, 546
6032, 199, 4, 196, 197
6033, 1, 767, 16, 812
6034, 5, 149, 14, 6
6035, 96, 729, 692, 97
6036, 283, 491, 488, 357
6037, 85, 696, 756, 122
6038, 351, 470, 422, 421
6039, 1097, 971, 506, 969
6040, 634, 780, 779, 848
6041, 154, 649, 779, 155
6042, 1, 767, 748, 151
6043, 761, 36, 21, 27
6044, 827, 181, 139, 138
6045, 724, 774, 93, 725
6046, 766, 839, 248, 837
6047, 635, 902, 662, 900
6048, 149, 200, 6, 5
6049, 544, 594, 364, 975
6050, 17, 812, 762, 1
6051, 1097, 971, 507, 506
6052, 761, 36, 130, 21
6053, 329, 368, 369, 441
6054, 752, 132, 28, 764
6055, 766, 722, 110, 740
6056, 629, 577, 571, 575
6057, 761, 36, 117, 130
6058, 782, 163, 164, 237
6059, 635, 902, 633, 662
6060, 635, 902, 765, 633
6061, 635, 902, 900, 765
6062, 236, 163, 782, 237
6063, 667, 49, 668, 51
6064, 707, 723, 98, 682
6065, 1085, 394, 309, 411
6066, 340, 1086, 449, 452
6067, 836, 257, 837, 247
6068, 782, 854, 237, 855
6069, 265, 263, 215, 248
6070, 236, 854, 237, 782
6071, 599, 555, 586, 557
6072, 183, 824, 450, 826
6073, 457, 818, 458, 459
6074, 501, 410, 408, 306
6075, 832, 180, 830, 829
6076, 40, 230, 231, 233
6077, 449, 1086, 340, 824
6078, 867, 242, 475, 868
6079, 127, 171, 721, 107
6080, 1049, 627, 581, 1054
6081, 898, 897, 895, 277
6082, 449, 1086, 450, 452
6083, 650, 649, 210, 651
6084, 1097, 971, 524, 507
6085, 1085, 394, 411, 410
6086, 134, 800, 640, 633
6087, 854, 236, 237, 463
6088, 216, 1084, 215, 159
6089, 38, 132, 226, 764
6090, 450, 1086, 449, 824
6091, 999, 992, 513, 993
6092, 450, 1086, 183, 452
6093, 213, 921, 922, 261
6094, 235, 658, 957, 659
6095, 876, 875, 949, 25
6096, 776, 147, 836, 247
6097, 280, 978, 484, 485
6098, 183, 1086, 450, 824
6099, 1097, 971, 969, 524
6100, 183, 824, 826, 823
6101, 482, 366, 593, 365
6102, 151, 121, 202, 7
6103, 365, 366, 593, 546
6104, 294, 405, 299, 416
6105, 215, 1084, 248, 159
6106, 806, 809, 13, 14
6107, 608, 562, 587, 1017
6108, 636, 854, 659, 236
6109, 732, 1089, 698, 1088
6110, 248, 1084, 215, 265
6111, 248, 1084, 260, 159
6112, 1066, 608, 587, 1017
6113, 260, 1084, 248, 265
6114, 294, 405, 289, 299
6115, 294, 405, 393, 289
6116, 562, 1001, 587, 1017
6117, 902, 905, 663, 662
6118, 904, 905, 663, 902
6119, 496, 976, 369, 986
6120, 377, 497, 499, 285
6121, 911, 192, 909, 910
6122, 294, 405, 416, 393
6123, 377, 499, 497, 437
6124, 460, 373, 925, 522
6125, 297, 290, 392, 292
6126, 127, 162, 254, 190
6127, 432, 332, 443, 413
6128, 877, 26, 880, 21
6129, 82, 685, 673, 710
6130, 380, 285, 284, 377
6131, 564, 1008, 1010, 1011
6132, 314, 409, 503, 389
6133, 732, 1089, 697, 698
6134, 484, 280, 363, 981
6135, 460, 925, 373, 835
6136, 9, 206, 1, 156
6137, 386, 409, 389, 513
6138, 607, 1003, 561, 1063
6139, 176, 192, 644, 908
6140, 520, 519, 371, 516
6141, 1066, 1001, 1017, 587
6142, 386, 409, 325, 389
6143, 732, 1089, 112, 697
6144, 751, 715, 157, 90
6145, 732, 1089, 1088, 112
6146, 41, 234, 232, 952
6147, 774, 93, 137, 138
6148, 884, 883, 881, 28
6149, 971, 279, 972, 967
6150, 386, 409, 412, 325
6151, 799, 11, 753, 801
6152, 186, 817, 456, 819
6153, 118, 26, 742, 21
6154, 358, 282, 486, 488
6155, 976, 496, 369, 441
6156, 1066, 1017, 1001, 1064
6157, 296, 293, 335, 408
6158, 526, 387, 320, 505
6159, 624, 1029, 625, 539
6160, 799, 11, 2, 753
6161, 826, 1073, 825, 828
6162, 279, 246, 923, 967
6163, 294, 397, 393, 415
6164, 228, 39, 226, 146
6165, 91, 753, 711, 718
6166, 463, 1070, 462, 465
6167, 556, 511, 558, 600
6168, 799, 11, 10, 2
6169, 687, 54, 62, 48
6170, 972, 279, 923, 967
6171, 622, 601, 623, 560
6172, 760, 877, 742, 26
6173, 157, 751, 20, 22
6174, 386, 409, 513, 412
6175, 104, 162, 135, 739
6176, 118, 760, 742, 26
6177, 259, 839, 248, 260
6178, 496, 435, 495, 370
6179, 999, 560, 992, 622
6180, 799, 11, 801, 10
6181, 548, 591, 546, 545
6182, 976, 614, 368, 549
6183, 999, 992, 560, 994
6184, 774, 773, 724, 93
6185, 504, 529, 503, 531
6186, 497, 379, 461, 284
6187, 562, 564, 565, 609
6188, 696, 695, 714, 73
6189, 1049, 631, 578, 580
6190, 409, 314, 325, 389
6191, 1082, 17, 19, 778
6192, 497, 461, 379, 418
6193, 133, 92, 726, 107
6194, 133, 738, 726, 92
6195, 1082, 17, 1, 19
6196, 511, 558, 385, 384
6197, 624, 625, 619, 539
6198, 729, 142, 771, 770
6199, 107, 171, 721, 726
6200, 374, 287, 988, 376
6201, 1049, 631, 632, 578
6202, 643, 642, 645, 175
6203, 1082, 17, 762, 1
6204, 167, 166, 786, 102
6205, 166, 785, 786, 102
6206, 1082, 17, 778, 762
6207, 451, 1083, 415, 312
6208, 969, 1097, 524, 356
6209, 854, 781, 236, 636
6210, 462, 1070, 464, 465
6211, 166, 167, 786, 240
6212, 637, 176, 192, 644
6213, 781, 854, 638, 636
6214, 397, 288, 390, 298
6215, 285, 497, 499, 500
6216, 636, 854, 638, 659
6217, 127, 162, 101, 798
6218, 302, 326, 429, 305
6219, 464, 1070, 462, 858
6220, 464, 1070, 467, 465
6221, 415, 1083, 451, 416
6222, 716, 119, 70, 80
6223, 861, 166, 786, 240
6224, 1021, 1015, 588, 1062
6225, 286, 285, 499, 500
6226, 524, 1097, 320, 356
6227, 1049, 541, 1052, 580
6228, 637, 176, 148, 192
6229, 178, 833, 917, 915
6230, 637, 176, 635, 148
6231, 495, 371, 370, 333
6232, 701, 671, 1078, 666
6233, 440, 310, 384, 385
6234, 106, 710, 145, 762
6235, 495, 370, 371, 516
6236, 415, 1083, 294, 312
6237, 346, 833, 915, 917
6238, 435, 333, 495, 370
6239, 810, 16, 767, 812
6240, 18, 17, 814, 778
6241, 251, 189, 253, 172
6242, 637, 176, 644, 635
6243, 921, 926, 922, 261
6244, 811, 810, 15, 808
6245, 251, 253, 189, 252
6246, 294, 1083, 415, 416
6247, 395, 300, 326, 302
6248, 739, 250, 796, 763
6249, 927, 256, 188, 261
6250, 340, 1083, 312, 311
6251, 739, 250, 135, 796
6252, 534, 584, 553, 535
6253, 130, 118, 81, 742
6254, 739, 250, 162, 135
6255, 26, 877, 880, 878
6256, 18, 814, 844, 778
6257, 739, 250, 763, 162
6258, 294, 1083, 311, 312
6259, 884, 882, 28, 881
6260, 467, 1070, 239, 238
6261, 45, 688, 675, 677
6262, 885, 886, 30, 29
6263, 329, 301, 435, 333
6264, 527, 970, 524, 356
6265, 312, 1083, 340, 451
6266, 420, 290, 316, 403
6267, 163, 634, 209, 636
6268, 170, 249, 127, 797
6269, 634, 154, 163, 209
6270, 420, 290, 317, 316
6271, 301, 329, 435, 426
6272, 420, 290, 398, 317
6273, 183, 825, 823, 826
6274, 467, 860, 857, 858
6275, 420, 290, 403, 398
6276, 426, 329, 435, 441
6277, 329, 496, 435, 441
6278, 1042, 578, 1040, 1038
6279, 875, 841, 943, 269
6280, 1036, 576, 1038, 1039
6281, 257, 838, 836, 837
6282, 258, 247, 248, 837
6283, 776, 836, 837, 247
6284, 239, 1070, 467, 857
6285, 948, 23, 269, 946
6286, 453, 1083, 416, 451
6287, 836, 257, 925, 932
6288, 185, 184, 142, 770
6289, 729, 96, 692, 693
6290, 658, 657, 646, 208
6291, 636, 658, 646, 208
6292, 533, 993, 513, 503
6293, 504, 528, 529, 531
6294, 417, 1083, 416, 453
6295, 1025, 552, 1026, 619
6296, 1015, 1013, 588, 567
6297, 173, 177, 916, 639
6298, 469, 861, 239, 859
6299, 245, 1080, 170, 171
6300, 838, 257, 258, 837
6301, 787, 865, 241, 168
6302, 239, 1070, 784, 238
6303, 588, 1015, 1061, 1062
6304, 170, 1080, 721, 171
6305, 17, 18, 814, 843
6306, 721, 1080, 170, 759
6307, 3, 2, 11, 128
6308, 802, 753, 128, 11
6309, 417, 1083, 338, 311
6310, 790, 1080, 721, 759
6311, 784, 1070, 239, 857
6312, 424, 353, 319, 321
6313, 338, 1083, 339, 311
6314, 784, 1070, 783, 238
6315, 783, 1070, 784, 857
6316, 18, 843, 844, 814
6317, 501, 381, 509, 307
6318, 496, 370, 495, 516
6319, 738, 92, 115, 691
6320, 74, 103, 704, 104
6321, 92, 69, 691, 690
6322, 501, 381, 508, 509
6323, 496, 986, 369, 514
6324, 810, 811, 15, 813
6325, 16, 810, 15, 813
6326, 496, 329, 369, 441
6327, 74, 704, 676, 690
6328, 74, 678, 676, 704
6329, 621, 552, 1025, 619
6330, 97, 723, 143, 142
6331, 358, 359, 282, 357
6332, 443, 446, 830, 444
6333, 536, 1003, 606, 542
6334, 501, 381, 287, 508
6335, 102, 736, 735, 786
6336, 976, 550, 1018, 615
6337, 761, 877, 21, 742
6338, 431, 323, 485, 434
6339, 40, 157, 20, 22
6340, 104, 690, 78, 703
6341, 395, 302, 429, 404
6342, 104, 690, 74, 78
6343, 26, 877, 742, 21
6344, 104, 690, 704, 74
6345, 464, 334, 348, 347
6346, 356, 527, 320, 524
6347, 388, 314, 503, 389
6348, 402, 440, 412, 325
6349, 504, 387, 529, 526
6350, 471, 863, 240, 864
6351, 554, 620, 596, 621
6352, 554, 621, 596, 553
6353, 863, 861, 240, 864
6354, 104, 690, 703, 704
6355, 158, 766, 110, 108
6356, 431, 323, 363, 485
6357, 464, 334, 419, 348
6358, 832, 1076, 345, 344
6359, 464, 334, 418, 419
6360, 464, 334, 347, 418
6361, 285, 286, 375, 378
6362, 1045, 622, 579, 560
6363, 976, 1018, 550, 986
6364, 295, 402, 325, 310
6365, 424, 423, 399, 319
6366, 360, 323, 434, 485
6367, 447, 313, 342, 341
6368, 577, 629, 631, 630
6369, 1045, 622, 1046, 579
6370, 432, 1076, 345, 442
6371, 1045, 622, 999, 1046
6372, 443, 1076, 432, 442
6373, 1045, 622, 560, 999
6374, 323, 360, 363, 485
6375, 458, 1091, 457, 455
6376, 678, 74, 676, 58
6377, 708, 745, 150, 121
6378, 256, 257, 836, 247
6379, 433, 322, 407, 324
6380, 457, 1091, 458, 818
6381, 213, 256, 261, 188
6382, 442, 917, 491, 490
6383, 447, 313, 413, 342
6384, 746, 649, 654, 653
6385, 337, 1091, 457, 818
6386, 447, 313, 414, 413
6387, 577, 629, 571, 631
6388, 259, 839, 260, 842
6389, 332, 322, 298, 407
6390, 282, 359, 283, 357
6391, 447, 313, 341, 414
6392, 758, 839, 841, 260
6393, 436, 1091, 330, 455
6394, 840, 839, 259, 842
6395, 635, 765, 900, 799
6396, 338, 1091, 337, 818
6397, 436, 1091, 337, 330
6398, 436, 1091, 457, 337
6399, 147, 256, 836, 247
6400, 436, 1091, 455, 457
6401, 1048, 581, 579, 627
6402, 570, 569, 616, 603
6403, 962, 278, 968, 963
6404, 1048, 579, 581, 1047
6405, 469, 468, 471, 864
6406, 43, 676, 69, 58
6407, 43, 676, 669, 69
6408, 635, 900, 662, 661
6409, 134, 765, 727, 800
6410, 207, 205, 8, 204
6411, 43, 676, 665, 669
6412, 1085, 293, 308, 309
6413, 508, 287, 501, 989
6414, 116, 736, 102, 167
6415, 486, 360, 485, 281
6416, 847, 845, 653, 942
6417, 1030, 628, 573, 1031
6418, 1014, 1015, 588, 567
6419, 1037, 628, 1031, 573
6420, 730, 1093, 728, 772
6421, 613, 564, 611, 568
6422, 91, 2, 128, 753
6423, 486, 485, 360, 434
6424, 329, 426, 327, 368
6425, 563, 605, 604, 585
6426, 178, 831, 834, 777
6427, 550, 582, 547, 570
6428, 416, 294, 393, 415
6429, 550, 582, 590, 547
6430, 1093, 140, 141, 95
6431, 711, 725, 670, 71
6432, 273, 250, 274, 892
6433, 550, 582, 615, 590
6434, 1085, 293, 410, 308
6435, 796, 891, 892, 273
6436, 445, 446, 830, 443
6437, 250, 796, 892, 273
6438, 132, 120, 764, 714
6439, 91, 2, 148, 128
6440, 91, 2, 799, 148
6441, 91, 2, 753, 799
6442, 70, 747, 712, 124
6443, 1077, 925, 256, 459
6444, 1077, 925, 836, 256
6445, 1085, 293, 394, 410
6446, 1027, 1056, 539, 1026
6447, 621, 554, 552, 553
6448, 454, 340, 451, 452
6449, 922, 927, 188, 261
6450, 551, 990, 621, 552
6451, 134, 111, 136, 727
6452, 902, 905, 662, 903
6453, 551, 621, 990, 996
6454, 1077, 925, 835, 836
6455, 1077, 925, 459, 835
6456, 60, 1069, 50, 53
6457, 50, 1069, 60, 679
6458, 1037, 1035, 1034, 573
6459, 765, 800, 633, 902
6460, 639, 173, 641, 916
6461, 180, 827, 181, 830
6462, 729, 96, 693, 730
6463, 1085, 293, 309, 394
6464, 180, 832, 830, 444
6465, 446, 180, 830, 444
6466, 737, 736, 689, 116
6467, 753, 91, 99, 128
6468, 178, 831, 833, 834
6469, 674, 1069, 50, 679
6470, 537, 590, 545, 583
6471, 537, 590, 547, 545
6472, 706, 1069, 674, 679
6473, 254, 255, 189, 190
6474, 254, 189, 255, 252
6475, 787, 736, 167, 786
6476, 386, 999, 513, 389
6477, 737, 169, 168, 115
6478, 386, 999, 992, 513
6479, 250, 796, 763, 892
6480, 386, 999, 994, 992
6481, 740, 98, 76, 682
6482, 352, 351, 422, 318
6483, 424, 423, 319, 353
6484, 288, 302, 390, 298
6485, 386, 999, 389, 994
6486, 1092, 147, 110, 144
6487, 388, 533, 503, 529
6488, 322, 324, 298, 407
6489, 97, 723, 692, 682
6490, 87, 1090, 120, 72
6491, 127, 249, 254, 798
6492, 740, 98, 110, 76
6493, 810, 16, 15, 767
6494, 482, 366, 481, 593
6495, 170, 127, 721, 797
6496, 740, 98, 722, 110
6497, 740, 98, 682, 722
6498, 896, 893, 275, 276
6499, 714, 1090, 120, 717
6500, 868, 475, 472, 473
6501, 816, 147, 776, 1092
6502, 816, 1092, 776, 768
6503, 537, 590, 582, 547
6504, 694, 1090, 714, 717
6505, 352, 1068, 868, 472
6506, 598, 554, 596, 556
6507, 956, 892, 274, 894
6508, 788, 242, 865, 168
6509, 29, 38, 226, 764
6510, 127, 107, 721, 101
6511, 358, 282, 488, 357
6512, 537, 590, 583, 582
6513, 1096, 802, 12, 754
6514, 626, 627, 538, 572
6515, 74, 103, 58, 678
6516, 200, 201, 6, 5
6517, 868, 1068, 352, 866
6518, 432, 322, 488, 357
6519, 626, 538, 627, 586
6520, 722, 1092, 766, 110
6521, 228, 123, 793, 146
6522, 3, 194, 196, 197
6523, 1096, 802, 3, 12
6524, 491, 432, 488, 357
6525, 199, 198, 5, 201
6526, 1096, 802, 152, 3
6527, 99, 89, 750, 152
6528, 3, 194, 152, 196
6529, 400, 300, 328, 430
6530, 613, 1016, 567, 588
6531, 143, 186, 1074, 144
6532, 1096, 802, 754, 152
6533, 986, 550, 982, 1019
6534, 868, 1068, 473, 472
6535, 766, 1092, 722, 776
6536, 1037, 1036, 574, 1034
6537, 56, 1069, 117, 81
6538, 96, 729, 142, 141
6539, 497, 418, 334, 437
6540, 118, 130, 21, 742
6541, 521, 519, 493, 522
6542, 212, 19, 931, 652
6543, 766, 1092, 158, 110
6544, 541, 1049, 1052, 1051
6545, 158, 1092, 766, 776
6546, 440, 411, 310, 401
6547, 473, 1068, 470, 472
6548, 158, 1092, 147, 110
6549, 1029, 628, 574, 573
6550, 335, 293, 306, 408
6551, 520, 519, 372, 371
6552, 147, 1092, 158, 776
6553, 153, 20, 1094, 135
6554, 212, 652, 931, 929
6555, 1035, 1037, 1031, 573
6556, 117, 1069, 56, 706
6557, 497, 498, 284, 966
6558, 497, 285, 284, 498
6559, 863, 471, 241, 866
6560, 117, 1069, 761, 81
6561, 839, 841, 260, 842
6562, 976, 985, 1018, 986
6563, 761, 1069, 117, 706
6564, 761, 1069, 742, 81
6565, 696, 1090, 714, 694
6566, 331, 494, 495, 371
6567, 154, 634, 163, 780
6568, 1094, 20, 739, 135
6569, 331, 425, 495, 494
6570, 75, 736, 689, 701
6571, 696, 1090, 122, 72
6572, 739, 20, 1094, 792
6573, 802, 3, 12, 11
6574, 802, 804, 12, 754
6575, 133, 789, 244, 790
6576, 389, 533, 513, 503
6577, 10, 2, 910, 637
6578, 34, 217, 218, 160
6579, 742, 1069, 761, 706
6580, 755, 804, 13, 806
6581, 257, 258, 837, 247
6582, 343, 445, 830, 443
6583, 762, 748, 145, 1
6584, 34, 23, 217, 160
6585, 333, 331, 495, 371
6586, 739, 20, 796, 135
6587, 3, 128, 152, 194
6588, 796, 20, 739, 792
6589, 122, 1090, 696, 694
6590, 31, 20, 887, 22
6591, 24, 32, 20, 796
6592, 373, 522, 372, 523
6593, 329, 426, 368, 441
6594, 820, 1091, 822, 339
6595, 494, 330, 436, 372
6596, 976, 614, 441, 368
6597, 69, 74, 58, 676
6598, 127, 170, 721, 171
6599, 122, 1090, 86, 72
6600, 86, 1090, 122, 694
6601, 822, 1091, 454, 339
6602, 1013, 1022, 588, 1016
6603, 550, 986, 1018, 1019
6604, 9, 212, 924, 206
6605, 501, 381, 374, 287
6606, 846, 845, 746, 653
6607, 501, 374, 381, 307
6608, 656, 634, 781, 636
6609, 419, 418, 437, 334
6610, 34, 1098, 26, 23
6611, 93, 774, 139, 138
6612, 148, 2, 192, 193
6613, 75, 736, 116, 689
6614, 787, 788, 865, 168
6615, 861, 166, 785, 786
6616, 302, 323, 305, 404
6617, 163, 636, 209, 208
6618, 911, 2, 192, 910
6619, 267, 1084, 268, 265
6620, 323, 431, 305, 404
6621, 673, 47, 57, 666
6622, 130, 761, 81, 117
6623, 547, 548, 590, 549
6624, 548, 591, 590, 614
6625, 289, 406, 393, 400
6626, 301, 426, 435, 406
6627, 387, 504, 529, 388
6628, 474, 475, 472, 868
6629, 496, 515, 516, 495
6630, 460, 835, 459, 925
6631, 969, 970, 968, 963
6632, 425, 301, 435, 406
6633, 301, 425, 405, 406
6634, 545, 543, 585, 592
6635, 267, 216, 944, 268
6636, 613, 1014, 567, 568
6637, 454, 1091, 453, 339
6638, 453, 1091, 454, 456
6639, 800, 640, 633, 663
6640, 584, 540, 535, 534
6641, 519, 520, 372, 523
6642, 267, 1084, 216, 268
6643, 537, 582, 583, 604
6644, 708, 680, 121, 86
6645, 267, 1084, 215, 216
6646, 100, 710, 748, 145
6647, 780, 154, 112, 163
6648, 267, 1084, 265, 215
6649, 34, 1098, 129, 26
6650, 987, 986, 982, 1019
6651, 707, 768, 1074, 769
6652, 447, 448, 450, 342
6653, 662, 902, 633, 663
6654, 411, 309, 310, 401
6655, 628, 629, 575, 574
6656, 548, 614, 590, 549
6657, 412, 440, 385, 325
6658, 273, 951, 234, 24
6659, 499, 335, 306, 408
6660, 615, 550, 1018, 616
6661, 467, 1070, 464, 858
6662, 832, 1071, 829, 831
6663, 34, 1098, 160, 129
6664, 273, 234, 951, 272
6665, 593, 366, 481, 546
6666, 116, 787, 167, 168
6667, 783, 165, 784, 238
6668, 900, 661, 903, 662
6669, 34, 1098, 23, 160
6670, 1056, 1027, 539, 624
6671, 1082, 106, 156, 762
6672, 314, 402, 325, 295
6673, 595, 981, 975, 542
6674, 622, 992, 601, 560
6675, 595, 975, 981, 977
6676, 1036, 576, 1039, 574
6677, 246, 251, 923, 172
6678, 246, 923, 251, 279
6679, 737, 169, 115, 738
6680, 1081, 1071, 832, 831
6681, 738, 169, 115, 92
6682, 1082, 106, 155, 156
6683, 936, 915, 938, 937
6684, 755, 124, 161, 88
6685, 1018, 550, 1019, 616
6686, 936, 346, 938, 915
6687, 621, 554, 551, 552
6688, 834, 833, 915, 938
6689, 833, 346, 915, 938
6690, 119, 752, 695, 73
6691, 1081, 1071, 178, 179
6692, 178, 1071, 1081, 831
6693, 812, 762, 1, 748
6694, 809, 806, 13, 807
6695, 69, 676, 669, 691
6696, 417, 1091, 453, 455
6697, 381, 287, 508, 990
6698, 598, 554, 620, 596
6699, 827, 181, 1073, 139
6700, 1073, 181, 182, 139
6701, 1082, 106, 741, 155
6702, 178, 1071, 136, 179
6703, 154, 780, 731, 779
6704, 1082, 106, 762, 741
6705, 795, 885, 793, 29
6706, 491, 492, 283, 488
6707, 417, 1091, 330, 338
6708, 431, 323, 305, 363
6709, 330, 1091, 417, 455
6710, 296, 334, 437, 335
6711, 639, 177, 916, 917
6712, 330, 1091, 337, 338
6713, 606, 607, 1004, 1003
6714, 1091, 453, 455, 456
6715, 177, 918, 916, 917
6716, 747, 13, 756, 806
6717, 747, 13, 124, 756
6718, 747, 13, 755, 124
6719, 717, 1087, 720, 705
6720, 747, 13, 806, 755
6721, 1090, 1087, 717, 705
6722, 547, 549, 590, 550
6723, 608, 562, 1017, 565
6724, 491, 920, 283, 492
6725, 798, 249, 254, 276
6726, 1090, 1087, 86, 87
6727, 930, 212, 924, 931
6728, 86, 1087, 1090, 705
6729, 703, 78, 726, 690
6730, 339, 338, 820, 1091
6731, 657, 208, 648, 646
6732, 86, 1087, 59, 87
6733, 75, 689, 116, 64
6734, 1067, 15, 6, 150
6735, 868, 1068, 865, 473
6736, 724, 65, 684, 670
6737, 104, 162, 703, 101
6738, 650, 209, 647, 648
6739, 1067, 15, 14, 6
6740, 125, 89, 152, 754
6741, 1037, 628, 574, 1039
6742, 737, 787, 168, 788
6743, 150, 6, 7, 15
6744, 634, 780, 848, 850
6745, 222, 223, 36, 225
6746, 228, 39, 229, 226
6747, 251, 874, 246, 278
6748, 402, 314, 439, 295
6749, 39, 38, 229, 226
6750, 769, 1074, 723, 143
6751, 1027, 624, 619, 539
6752, 169, 737, 168, 788
6753, 620, 621, 551, 996
6754, 576, 577, 578, 630
6755, 576, 630, 1039, 574
6756, 176, 635, 148, 126
6757, 723, 1074, 769, 707
6758, 307, 410, 509, 501
6759, 404, 433, 324, 434
6760, 338, 818, 820, 1091
6761, 906, 664, 834, 777
6762, 381, 307, 382, 509
6763, 366, 482, 481, 430
6764, 723, 97, 143, 98
6765, 819, 185, 769, 770
6766, 38, 227, 224, 37
6767, 536, 1003, 561, 606
6768, 865, 1068, 868, 866
6769, 863, 167, 241, 240
6770, 200, 150, 6, 202
6771, 608, 605, 610, 565
6772, 149, 198, 200, 5
6773, 222, 36, 131, 37
6774, 5, 13, 124, 161
6775, 865, 1068, 241, 473
6776, 198, 200, 5, 201
6777, 207, 206, 204, 8
6778, 36, 27, 131, 37
6779, 456, 455, 1091, 458
6780, 337, 373, 457, 436
6781, 1067, 15, 757, 14
6782, 723, 1074, 98, 143
6783, 992, 602, 559, 386
6784, 440, 402, 310, 325
6785, 511, 512, 440, 385
6786, 438, 505, 428, 304
6787, 479, 478, 873, 872
6788, 373, 337, 330, 436
6789, 98, 1074, 723, 707
6790, 98, 1074, 144, 143
6791, 591, 593, 481, 546
6792, 506, 971, 507, 967
6793, 723, 729, 770, 142
6794, 584, 535, 626, 586
6795, 144, 1074, 98, 707
6796, 241, 1068, 865, 866
6797, 671, 665, 669, 43
6798, 971, 507, 967, 973
6799, 241, 1068, 471, 473
6800, 69, 74, 690, 78
6801, 47, 82, 673, 57
6802, 147, 776, 158, 247
6803, 358, 359, 361, 282
6804, 926, 927, 922, 261
6805, 147, 213, 247, 214
6806, 600, 512, 558, 602
6807, 146, 764, 120, 717
6808, 943, 841, 842, 260
6809, 281, 489, 486, 282
6810, 972, 971, 967, 973
6811, 111, 725, 727, 718
6812, 146, 764, 226, 120
6813, 471, 1068, 241, 866
6814, 238, 165, 784, 239
6815, 4, 152, 196, 3
6816, 4, 152, 1096, 196
6817, 971, 506, 246, 967
6818, 777, 640, 639, 136
6819, 1091, 1083, 338, 417
6820, 558, 512, 385, 559
6821, 1091, 1083, 339, 338
6822, 777, 639, 640, 664
6823, 31, 889, 32, 890
6824, 1053, 1052, 581, 1054
6825, 24, 32, 796, 891
6826, 568, 610, 604, 563
6827, 568, 604, 610, 612
6828, 146, 764, 717, 795
6829, 337, 818, 457, 835
6830, 817, 1091, 458, 456
6831, 694, 744, 696, 122
6832, 512, 558, 602, 559
6833, 817, 1091, 818, 458
6834, 1091, 1083, 453, 339
6835, 817, 1091, 820, 818
6836, 1091, 1083, 417, 453
6837, 667, 674, 668, 49
6838, 674, 48, 668, 49
6839, 461, 347, 418, 462
6840, 827, 825, 1073, 828
6841, 390, 302, 407, 298
6842, 54, 687, 683, 48
6843, 76, 84, 108, 740
6844, 367, 427, 481, 480
6845, 49, 48, 668, 51
6846, 89, 686, 51, 55
6847, 1083, 299, 311, 417
6848, 178, 177, 639, 917
6849, 336, 387, 388, 504
6850, 314, 336, 388, 504
6851, 649, 634, 647, 209
6852, 162, 127, 254, 798
6853, 600, 511, 558, 512
6854, 573, 574, 1037, 628
6855, 394, 309, 411, 401
6856, 541, 1049, 1051, 589
6857, 856, 347, 461, 462
6858, 591, 545, 590, 583
6859, 767, 709, 748, 151
6860, 651, 652, 211, 929
6861, 1028, 1050, 1051, 541
6862, 1064, 607, 1066, 1017
6863, 512, 511, 558, 385
6864, 563, 605, 585, 536
6865, 696, 695, 73, 85
6866, 302, 395, 390, 404
6867, 858, 347, 856, 462
6868, 238, 1070, 237, 465
6869, 687, 62, 749, 713
6870, 99, 753, 750, 711
6871, 445, 446, 448, 830
6872, 235, 964, 957, 965
6873, 892, 274, 894, 275
6874, 157, 792, 751, 103
6875, 658, 235, 957, 965
6876, 657, 235, 658, 965
6877, 1065, 1064, 1063, 607
6878, 237, 1070, 463, 465
6879, 766, 158, 159, 108
6880, 157, 792, 20, 751
6881, 463, 1070, 237, 855
6882, 892, 275, 894, 893
6883, 251, 759, 246, 874
6884, 1083, 299, 294, 311
6885, 1083, 299, 416, 294
6886, 762, 1082, 741, 778
6887, 511, 598, 383, 510
6888, 377, 497, 379, 334
6889, 27, 879, 794, 881
6890, 214, 147, 158, 247
6891, 431, 363, 305, 364
6892, 234, 41, 951, 952
6893, 32, 889, 20, 796
6894, 26, 1098, 760, 791
6895, 762, 1082, 1, 156
6896, 497, 418, 379, 334
6897, 761, 130, 81, 742
6898, 1083, 299, 417, 416
6899, 6, 1067, 149, 14
6900, 149, 1067, 6, 122
6901, 147, 816, 776, 836
6902, 373, 935, 925, 522
6903, 149, 1067, 756, 14
6904, 861, 166, 240, 239
6905, 23, 1098, 26, 791
6906, 427, 426, 327, 291
6907, 756, 1067, 149, 122
6908, 426, 427, 406, 291
6909, 756, 1067, 744, 14
6910, 649, 155, 211, 652
6911, 126, 635, 148, 799
6912, 212, 929, 931, 930
6913, 264, 263, 214, 266
6914, 217, 33, 219, 945
6915, 854, 236, 463, 659
6916, 1028, 541, 1051, 589
6917, 90, 715, 123, 61
6918, 461, 964, 957, 463
6919, 1050, 1043, 541, 1028
6920, 259, 258, 248, 837
6921, 1, 1082, 19, 156
6922, 374, 286, 376, 375
6923, 317, 316, 350, 420
6924, 744, 1067, 756, 122
6925, 649, 155, 746, 779
6926, 505, 1097, 524, 507
6927, 637, 635, 900, 799
6928, 287, 501, 989, 502
6929, 687, 62, 668, 48
6930, 287, 286, 501, 502
6931, 952, 41, 233, 232
6932, 48, 674, 683, 56
6933, 269, 1098, 23, 791
6934, 505, 1097, 320, 524
6935, 563, 585, 537, 536
6936, 563, 537, 585, 604
6937, 765, 635, 126, 799
6938, 505, 526, 524, 320
6939, 154, 649, 210, 209
6940, 505, 1097, 428, 320
6941, 91, 753, 718, 799
6942, 634, 636, 647, 209
6943, 845, 746, 653, 778
6944, 746, 649, 779, 654
6945, 273, 956, 892, 274
6946, 848, 634, 655, 654
6947, 273, 892, 956, 891
6948, 765, 126, 718, 799
6949, 438, 396, 303, 399
6950, 126, 91, 718, 799
6951, 126, 148, 91, 799
6952, 609, 564, 611, 1011
6953, 27, 761, 743, 879
6954, 144, 1074, 187, 186
6955, 252, 253, 189, 255
6956, 841, 1098, 269, 791
6957, 187, 1074, 817, 186
6958, 251, 170, 172, 246
6959, 290, 391, 392, 292
6960, 374, 381, 988, 287
6961, 505, 1097, 507, 428
6962, 841, 1098, 260, 269
6963, 841, 1098, 758, 260
6964, 497, 285, 498, 500
6965, 36, 222, 131, 117
6966, 27, 36, 131, 117
6967, 482, 365, 594, 483
6968, 769, 1074, 817, 768
6969, 573, 1037, 574, 1034
6970, 841, 1098, 791, 758
6971, 484, 363, 364, 975
6972, 802, 11, 12, 805
6973, 695, 70, 747, 712
6974, 367, 427, 480, 327
6975, 514, 370, 516, 517
6976, 804, 12, 13, 807
6977, 806, 756, 808, 14
6978, 182, 1073, 448, 181
6979, 27, 877, 761, 879
6980, 27, 877, 21, 761
6981, 804, 805, 12, 807
6982, 154, 155, 779, 731
6983, 802, 754, 152, 750
6984, 89, 754, 750, 152
6985, 448, 1073, 830, 181
6986, 830, 1073, 448, 828
6987, 830, 1073, 827, 181
6988, 27, 877, 880, 21
6989, 893, 892, 275, 763
6990, 627, 579, 538, 572
6991, 170, 759, 246, 251
6992, 627, 572, 626, 631
6993, 27, 877, 879, 880
6994, 38, 227, 229, 226
6995, 529, 533, 503, 531
6996, 469, 471, 240, 864
6997, 827, 1073, 830, 828
6998, 1082, 652, 156, 155
6999, 753, 802, 152, 750
7000, 398, 297, 392, 399
7001, 268, 1098, 160, 23
7002, 449, 312, 451, 415
7003, 411, 440, 310, 384
7004, 156, 652, 1082, 19
7005, 394, 309, 401, 292
7006, 606, 542, 1003, 1002
7007, 1028, 1043, 541, 589
7008, 740, 76, 110, 108
7009, 340, 449, 451, 452
7010, 360, 361, 362, 281
7011, 1072, 506, 873, 479
7012, 293, 391, 290, 292
7013, 23, 268, 946, 33
7014, 287, 381, 988, 990
7015, 23, 946, 268, 269
7016, 611, 610, 612, 568
7017, 499, 286, 502, 501
7018, 445, 448, 828, 830
7019, 104, 703, 78, 101
7020, 346, 936, 357, 283
7021, 871, 1072, 873, 479
7022, 550, 616, 582, 570
7023, 550, 582, 616, 615
7024, 146, 39, 793, 228
7025, 439, 402, 295, 396
7026, 312, 449, 414, 415
7027, 268, 1098, 260, 160
7028, 268, 1098, 269, 260
7029, 148, 635, 637, 799
7030, 178, 834, 639, 777
7031, 268, 1098, 23, 269
7032, 61, 1087, 123, 87
7033, 676, 1095, 43, 665
7034, 549, 976, 550, 982
7035, 986, 984, 987, 369
7036, 637, 2, 799, 10
7037, 123, 1087, 146, 87
7038, 976, 986, 550, 982
7039, 146, 1087, 123, 720
7040, 183, 184, 771, 141
7041, 540, 584, 626, 625
7042, 526, 525, 528, 505
7043, 676, 1095, 58, 43
7044, 724, 773, 94, 93
7045, 637, 799, 2, 148
7046, 899, 637, 900, 799
7047, 460, 928, 493, 522
7048, 629, 540, 626, 625
7049, 809, 806, 808, 14
7050, 432, 322, 357, 345
7051, 178, 177, 173, 639
7052, 745, 708, 680, 121
7053, 540, 629, 626, 571
7054, 149, 198, 5, 124
7055, 996, 508, 997, 990
7056, 664, 906, 834, 939
7057, 676, 1095, 678, 58
7058, 52, 1078, 75, 44
7059, 676, 1095, 665, 678
7060, 840, 258, 259, 837
7061, 322, 358, 433, 488
7062, 839, 840, 259, 837
7063, 717, 1087, 146, 720
7064, 957, 964, 966, 965
7065, 245, 506, 1072, 479
7066, 174, 134, 640, 175
7067, 810, 757, 15, 808
7068, 448, 446, 181, 830
7069, 50, 1069, 49, 53
7070, 754, 89, 750, 713
7071, 19, 940, 931, 652
7072, 49, 1069, 50, 674
7073, 620, 382, 510, 509
7074, 700, 1079, 735, 734
7075, 149, 85, 756, 122
7076, 804, 4, 755, 13
7077, 70, 747, 124, 85
7078, 58, 1095, 103, 90
7079, 49, 1069, 48, 53
7080, 696, 744, 756, 122
7081, 48, 1069, 49, 674
7082, 167, 787, 241, 168
7083, 963, 969, 356, 873
7084, 48, 1069, 56, 53
7085, 606, 607, 1003, 561
7086, 1037, 1036, 1039, 574
7087, 25, 23, 26, 791
7088, 33, 23, 217, 34
7089, 943, 841, 260, 269
7090, 103, 1095, 58, 678
7091, 70, 54, 88, 712
7092, 86, 72, 1090, 87
7093, 328, 366, 481, 430
7094, 755, 712, 88, 749
7095, 761, 27, 743, 117
7096, 404, 302, 429, 305
7097, 400, 300, 291, 328
7098, 981, 974, 363, 975
7099, 689, 1078, 75, 701
7100, 103, 1095, 751, 90
7101, 185, 186, 456, 819
7102, 156, 212, 211, 652
7103, 751, 1095, 103, 678
7104, 751, 1095, 715, 90
7105, 156, 206, 1, 145
7106, 540, 629, 571, 575
7107, 104, 703, 162, 739
7108, 93, 71, 65, 670
7109, 56, 1069, 48, 674
7110, 800, 777, 640, 663
7111, 28, 883, 881, 764
7112, 93, 724, 65, 94
7113, 715, 1095, 751, 678
7114, 724, 93, 65, 670
7115, 86, 694, 705, 1090
7116, 671, 1078, 689, 701
7117, 284, 958, 961, 379
7118, 767, 7, 1, 16
7119, 767, 1, 7, 151
7120, 869, 243, 244, 477
7121, 173, 136, 639, 640
7122, 82, 1089, 106, 105
7123, 155, 156, 211, 652
7124, 992, 999, 622, 1000
7125, 136, 173, 174, 640
7126, 373, 934, 925, 935
7127, 427, 400, 291, 328
7128, 694, 717, 705, 1090
7129, 161, 1096, 749, 125
7130, 1021, 1016, 588, 1022
7131, 106, 1089, 82, 685
7132, 749, 1096, 754, 125
7133, 889, 31, 32, 20
7134, 754, 1096, 749, 804
7135, 4, 804, 12, 13
7136, 106, 1089, 741, 105
7137, 29, 793, 146, 39
7138, 664, 777, 663, 640
7139, 508, 287, 989, 990
7140, 741, 1089, 106, 685
7141, 893, 896, 275, 894
7142, 902, 800, 633, 663
7143, 781, 853, 638, 854
7144, 235, 657, 658, 208
7145, 781, 656, 636, 638
7146, 656, 853, 781, 850
7147, 741, 1089, 731, 105
7148, 113, 733, 734, 699
7149, 29, 146, 793, 795
7150, 494, 331, 372, 371
7151, 185, 143, 769, 770
7152, 836, 1077, 816, 835
7153, 731, 1089, 741, 685
7154, 1082, 649, 155, 746
7155, 1082, 649, 652, 155
7156, 354, 478, 479, 872
7157, 548, 591, 367, 481
7158, 278, 962, 874, 963
7159, 1082, 649, 653, 652
7160, 969, 279, 971, 246
7161, 256, 1077, 459, 188
7162, 236, 957, 659, 235
7163, 1082, 649, 746, 653
7164, 1031, 1057, 1055, 573
7165, 236, 957, 463, 659
7166, 591, 367, 481, 480
7167, 410, 293, 306, 308
7168, 1067, 14, 757, 744
7169, 410, 306, 293, 408
7170, 111, 725, 93, 137
7171, 236, 957, 964, 463
7172, 869, 244, 790, 871
7173, 354, 1075, 321, 353
7174, 236, 957, 235, 964
7175, 209, 650, 649, 210
7176, 428, 304, 320, 321
7177, 548, 614, 367, 591
7178, 468, 469, 349, 862
7179, 209, 649, 650, 647
7180, 599, 586, 601, 557
7181, 303, 297, 319, 399
7182, 904, 800, 902, 663
7183, 591, 614, 367, 480
7184, 780, 112, 697, 732
7185, 700, 77, 735, 1079
7186, 592, 585, 595, 543
7187, 871, 1072, 874, 873
7188, 591, 593, 546, 545
7189, 202, 6, 203, 7
7190, 787, 736, 116, 167
7191, 887, 889, 20, 31
7192, 1071, 727, 136, 137
7193, 887, 20, 889, 792
7194, 14, 811, 15, 808
7195, 469, 468, 349, 466
7196, 250, 162, 254, 763
7197, 685, 1089, 698, 697
7198, 845, 942, 844, 653
7199, 321, 1075, 424, 353
7200, 773, 1093, 772, 728
7201, 1065, 1064, 607, 1066
7202, 773, 1093, 94, 140
7203, 280, 360, 281, 485
7204, 360, 433, 486, 434
7205, 424, 1075, 321, 476
7206, 941, 18, 843, 844
7207, 1071, 727, 777, 136
7208, 388, 533, 529, 532
7209, 125, 754, 749, 713
7210, 512, 440, 385, 412
7211, 1071, 727, 775, 777
7212, 512, 513, 386, 602
7213, 230, 40, 232, 233
7214, 1071, 727, 137, 775
7215, 762, 156, 1, 145
7216, 679, 1099, 742, 60
7217, 94, 1093, 95, 140
7218, 941, 942, 18, 844
7219, 474, 1075, 424, 476
7220, 533, 388, 389, 532
7221, 491, 346, 357, 283
7222, 126, 765, 134, 633
7223, 742, 1099, 679, 719
7224, 904, 777, 800, 663
7225, 454, 184, 185, 821
7226, 454, 185, 819, 821
7227, 184, 185, 821, 770
7228, 742, 1099, 118, 60
7229, 978, 484, 979, 981
7230, 759, 1072, 874, 871
7231, 118, 1099, 742, 719
7232, 978, 280, 484, 981
7233, 454, 185, 456, 819
7234, 118, 1099, 84, 60
7235, 136, 178, 173, 639
7236, 981, 280, 363, 974
7237, 934, 373, 925, 835
7238, 215, 214, 158, 248
7239, 919, 490, 917, 178
7240, 126, 134, 175, 633
7241, 1080, 1072, 759, 871
7242, 129, 1098, 160, 109
7243, 105, 112, 63, 1089
7244, 1080, 1072, 244, 245
7245, 511, 598, 600, 556
7246, 89, 686, 750, 713
7247, 244, 1072, 1080, 871
7248, 578, 630, 631, 632
7249, 198, 199, 4, 196
7250, 206, 9, 1, 8
7251, 802, 803, 801, 11
7252, 193, 2, 194, 128
7253, 940, 19, 653, 652
7254, 869, 243, 477, 867
7255, 2, 3, 194, 128
7256, 3, 2, 194, 195
7257, 2, 911, 193, 195
7258, 48, 687, 674, 668
7259, 397, 390, 407, 298
7260, 955, 956, 954, 891
7261, 244, 1072, 479, 245
7262, 479, 1072, 244, 871
7263, 323, 404, 324, 434
7264, 417, 330, 436, 425
7265, 332, 343, 413, 313
7266, 294, 397, 298, 288
7267, 915, 834, 938, 939
7268, 834, 178, 639, 915
7269, 84, 1099, 118, 719
7270, 664, 906, 907, 663
7271, 426, 291, 301, 327
7272, 426, 301, 291, 406
7273, 644, 192, 910, 908
7274, 948, 875, 943, 269
7275, 1096, 755, 749, 804
7276, 717, 795, 720, 146
7277, 129, 1098, 760, 26
7278, 285, 375, 499, 377
7279, 1096, 755, 161, 749
7280, 366, 548, 367, 481
7281, 585, 606, 595, 536
7282, 906, 904, 907, 663
7283, 94, 1093, 65, 95
7284, 1096, 755, 4, 161
7285, 774, 775, 829, 137
7286, 23, 33, 217, 268
7287, 405, 301, 289, 299
7288, 906, 904, 663, 777
7289, 572, 577, 631, 580
7290, 576, 630, 1038, 1039
7291, 664, 906, 663, 777
7292, 65, 1093, 702, 95
7293, 1038, 630, 1040, 1039
7294, 405, 289, 301, 406
7295, 394, 293, 408, 410
7296, 427, 367, 481, 328
7297, 915, 346, 917, 283
7298, 702, 1093, 65, 728
7299, 667, 65, 66, 51
7300, 1096, 755, 804, 4
7301, 314, 409, 325, 402
7302, 410, 307, 306, 501
7303, 715, 1095, 678, 677
7304, 689, 64, 669, 691
7305, 715, 1095, 61, 90
7306, 702, 1093, 693, 95
7307, 474, 868, 472, 352
7308, 423, 352, 472, 422
7309, 402, 409, 325, 412
7310, 61, 1095, 715, 677
7311, 300, 395, 288, 302
7312, 738, 92, 691, 690
7313, 69, 64, 669, 43
7314, 431, 404, 429, 305
7315, 919, 490, 491, 917
7316, 729, 141, 771, 142
7317, 69, 690, 676, 691
7318, 185, 819, 821, 770
7319, 730, 1093, 702, 728
7320, 919, 920, 917, 491
7321, 491, 920, 917, 283
7322, 475, 867, 477, 243
7323, 329, 333, 435, 370
7324, 61, 1095, 46, 90
7325, 46, 1095, 61, 677
7326, 202, 8, 205, 204
7327, 202, 8, 7, 205
7328, 783, 1088, 732, 733
7329, 693, 1093, 702, 730
7330, 783, 1088, 165, 164
7331, 202, 8, 151, 7
7332, 566, 603, 582, 604
7333, 613, 611, 612, 568
7334, 570, 566, 582, 537
7335, 165, 1088, 783, 733
7336, 547, 570, 582, 537
7337, 570, 616, 582, 603
7338, 165, 1088, 113, 164
7339, 202, 8, 204, 151
7340, 234, 271, 272, 191
7341, 113, 1088, 165, 733
7342, 112, 113, 1088, 164
7343, 653, 19, 1082, 652
7344, 432, 322, 433, 488
7345, 132, 38, 226, 224
7346, 653, 1082, 19, 778
7347, 693, 1093, 96, 95
7348, 566, 563, 568, 604
7349, 497, 377, 379, 284
7350, 853, 656, 781, 638
7351, 134, 136, 174, 640
7352, 659, 854, 638, 958
7353, 3, 1096, 4, 152
7354, 404, 302, 407, 390
7355, 302, 404, 407, 324
7356, 635, 765, 126, 633
7357, 3, 1096, 12, 4
7358, 1088, 732, 733, 698
7359, 215, 158, 159, 248
7360, 522, 373, 372, 493
7361, 119, 794, 37, 131
7362, 955, 24, 891, 32
7363, 569, 1059, 618, 1061
7364, 542, 980, 981, 975
7365, 96, 1093, 693, 730
7366, 875, 876, 791, 25
7367, 1060, 1059, 618, 1024
7368, 25, 876, 791, 26
7369, 118, 84, 719, 129
7370, 10, 637, 660, 899
7371, 556, 511, 384, 558
7372, 286, 499, 502, 500
7373, 285, 286, 499, 375
7374, 1059, 569, 618, 1024
7375, 96, 1093, 141, 95
7376, 760, 118, 719, 129
7377, 141, 1093, 96, 730
7378, 373, 493, 436, 372
7379, 563, 565, 568, 610
7380, 1087, 45, 61, 688
7381, 373, 460, 493, 522
7382, 1020, 616, 1018, 1019
7383, 373, 460, 436, 493
7384, 37, 794, 27, 131
7385, 180, 827, 830, 829
7386, 129, 84, 719, 109
7387, 969, 971, 506, 246
7388, 730, 729, 141, 771
7389, 339, 454, 822, 340
7390, 1016, 613, 567, 1012
7391, 315, 316, 420, 349
7392, 315, 420, 466, 349
7393, 1026, 1027, 619, 539
7394, 1087, 45, 59, 61
7395, 77, 1079, 79, 114
7396, 761, 706, 117, 743
7397, 439, 303, 295, 336
7398, 439, 295, 303, 396
7399, 699, 1079, 700, 734
7400, 420, 316, 350, 349
7401, 1087, 45, 680, 59
7402, 288, 393, 400, 289
7403, 1056, 1057, 1058, 624
7404, 130, 222, 36, 117
7405, 566, 1014, 603, 568
7406, 683, 56, 706, 743
7407, 1087, 45, 688, 680
7408, 781, 780, 782, 163
7409, 375, 285, 378, 377
7410, 288, 400, 393, 390
7411, 141, 1093, 183, 140
7412, 194, 3, 195, 197
7413, 206, 145, 204, 8
7414, 424, 1075, 423, 353
7415, 492, 282, 283, 488
7416, 977, 484, 975, 981
7417, 1031, 573, 1055, 1032
7418, 572, 571, 626, 631
7419, 900, 901, 903, 661
7420, 551, 381, 508, 990
7421, 423, 1075, 424, 474
7422, 681, 83, 57, 100
7423, 113, 1079, 699, 734
7424, 362, 280, 974, 363
7425, 445, 343, 828, 342
7426, 994, 992, 559, 386
7427, 113, 1079, 114, 79
7428, 992, 513, 602, 386
7429, 183, 1093, 825, 140
7430, 467, 469, 239, 859
7431, 628, 575, 1029, 574
7432, 737, 169, 738, 788
7433, 825, 1093, 183, 772
7434, 423, 1075, 352, 353
7435, 352, 1075, 423, 474
7436, 999, 533, 513, 389
7437, 83, 680, 59, 121
7438, 414, 313, 397, 413
7439, 628, 1029, 575, 1030
7440, 798, 275, 254, 763
7441, 167, 736, 102, 786
7442, 103, 74, 704, 678
7443, 32, 889, 796, 891
7444, 867, 242, 243, 475
7445, 766, 740, 110, 108
7446, 825, 1093, 773, 140
7447, 242, 169, 788, 243
7448, 867, 242, 788, 243
7449, 773, 1093, 825, 772
7450, 836, 925, 835, 934
7451, 721, 1080, 726, 171
7452, 726, 1080, 721, 790
7453, 352, 1075, 868, 353
7454, 129, 34, 218, 160
7455, 461, 964, 966, 957
7456, 868, 1075, 352, 474
7457, 17, 16, 815, 812
7458, 61, 45, 677, 688
7459, 695, 752, 714, 73
7460, 400, 395, 288, 300
7461, 949, 876, 25, 878
7462, 25, 876, 26, 878
7463, 400, 288, 395, 390
7464, 726, 1080, 133, 171
7465, 133, 1080, 726, 790
7466, 605, 606, 561, 607
7467, 1017, 607, 561, 1063
7468, 542, 1002, 981, 1003
7469, 478, 1075, 479, 476
7470, 1081, 442, 444, 490
7471, 752, 119, 716, 794
7472, 132, 38, 28, 764
7473, 133, 1080, 244, 171
7474, 244, 1080, 133, 790
7475, 321, 1097, 320, 428
7476, 593, 591, 583, 545
7477, 294, 397, 313, 298
7478, 905, 904, 663, 907
7479, 179, 1071, 136, 137
7480, 737, 787, 116, 168
7481, 321, 1097, 355, 320
7482, 1010, 1013, 567, 1012
7483, 831, 775, 1071, 829
7484, 249, 170, 127, 189
7485, 782, 164, 783, 237
7486, 471, 863, 241, 240
7487, 115, 737, 116, 168
7488, 321, 1097, 478, 355
7489, 106, 685, 710, 741
7490, 756, 744, 808, 14
7491, 321, 1097, 428, 478
7492, 812, 17, 814, 815
7493, 812, 17, 762, 814
7494, 621, 584, 596, 553
7495, 556, 554, 383, 598
7496, 584, 621, 534, 553
7497, 870, 1075, 872, 354
7498, 478, 1075, 354, 479
7499, 1071, 775, 137, 829
7500, 605, 606, 585, 536
7501, 695, 696, 747, 85
7502, 70, 695, 747, 85
7503, 249, 252, 189, 254
7504, 872, 1075, 479, 354
7505, 403, 334, 296, 315
7506, 243, 867, 869, 789
7507, 403, 334, 437, 296
7508, 795, 883, 29, 764
7509, 403, 334, 419, 437
7510, 406, 289, 291, 400
7511, 499, 375, 335, 377
7512, 479, 1075, 872, 477
7513, 300, 395, 326, 430
7514, 555, 586, 557, 538
7515, 403, 334, 315, 419
7516, 52, 700, 47, 77
7517, 83, 709, 680, 121
7518, 478, 1075, 321, 354
7519, 198, 199, 5, 4
7520, 208, 659, 236, 636
7521, 521, 519, 494, 493
7522, 208, 659, 235, 236
7523, 358, 322, 433, 324
7524, 555, 535, 586, 538
7525, 824, 449, 450, 341
7526, 208, 659, 658, 235
7527, 478, 1075, 476, 321
7528, 1087, 715, 61, 123
7529, 1087, 715, 688, 61
7530, 476, 1075, 479, 477
7531, 423, 352, 319, 353
7532, 224, 222, 37, 225
7533, 518, 519, 494, 521
7534, 208, 659, 636, 658
7535, 438, 304, 428, 321
7536, 1087, 715, 720, 688
7537, 817, 1074, 819, 186
7538, 303, 439, 304, 336
7539, 141, 184, 771, 142
7540, 770, 184, 771, 821
7541, 753, 91, 711, 99
7542, 825, 183, 823, 772
7543, 1087, 715, 123, 720
7544, 544, 595, 975, 542
7545, 564, 613, 567, 568
7546, 585, 537, 583, 604
7547, 715, 751, 157, 793
7548, 795, 883, 885, 29
7549, 884, 883, 28, 29
7550, 719, 1098, 109, 758
7551, 752, 132, 764, 714
7552, 629, 576, 575, 574
7553, 132, 119, 752, 28
7554, 303, 304, 439, 438
7555, 467, 860, 862, 859
7556, 217, 34, 219, 33
7557, 217, 219, 34, 218
7558, 469, 467, 862, 859
7559, 14, 744, 808, 757
7560, 819, 1074, 817, 769
7561, 10, 803, 801, 914
7562, 861, 469, 862, 859
7563, 330, 373, 436, 372
7564, 221, 34, 218, 35
7565, 516, 520, 517, 371
7566, 629, 630, 576, 574
7567, 686, 667, 65, 684
7568, 348, 315, 466, 349
7569, 819, 1074, 185, 186
7570, 185, 1074, 819, 769
7571, 185, 1074, 143, 186
7572, 143, 1074, 185, 769
7573, 201, 200, 6, 203
7574, 367, 366, 481, 328
7575, 220, 221, 218, 35
7576, 55, 89, 750, 99
7577, 686, 667, 51, 65
7578, 587, 1007, 1005, 1009
7579, 220, 218, 129, 35
7580, 395, 300, 400, 430
7581, 577, 576, 629, 630
7582, 719, 1098, 129, 109
7583, 473, 1068, 471, 470
7584, 577, 576, 575, 629
7585, 503, 504, 314, 388
7586, 503, 314, 504, 409
7587, 418, 461, 379, 347
7588, 70, 712, 88, 124
7589, 719, 1098, 760, 129
7590, 477, 869, 872, 479
7591, 467, 857, 1070, 858
7592, 218, 34, 129, 35
7593, 23, 217, 160, 268
7594, 719, 1098, 758, 760
7595, 756, 5, 124, 149
7596, 712, 755, 88, 124
7597, 461, 497, 284, 966
7598, 958, 854, 638, 960
7599, 377, 380, 379, 284
7600, 1090, 73, 696, 714
7601, 280, 281, 487, 485
7602, 621, 1025, 990, 996
7603, 431, 323, 434, 404
7604, 360, 323, 324, 434
7605, 864, 1068, 471, 866
7606, 621, 552, 990, 1025
7607, 358, 281, 486, 282
7608, 1090, 73, 72, 696
7609, 83, 45, 59, 680
7610, 1090, 73, 120, 72
7611, 61, 1087, 87, 59
7612, 467, 238, 465, 1070
7613, 552, 1025, 1026, 990
7614, 309, 411, 310, 384
7615, 710, 762, 748, 145
7616, 991, 552, 1026, 990
7617, 978, 280, 487, 485
7618, 1090, 73, 714, 120
7619, 3, 802, 128, 11
7620, 35, 222, 36, 130
7621, 82, 106, 710, 100
7622, 846, 845, 653, 847
7623, 351, 1068, 864, 866
7624, 849, 848, 655, 654
7625, 358, 360, 281, 361
7626, 433, 360, 324, 434
7627, 656, 634, 655, 850
7628, 699, 1089, 673, 63
7629, 147, 1077, 256, 188
7630, 3, 128, 802, 152
7631, 686, 89, 750, 55
7632, 673, 1089, 699, 685
7633, 725, 137, 774, 93
7634, 725, 774, 137, 775
7635, 673, 1089, 82, 63
7636, 897, 962, 277, 898
7637, 278, 969, 968, 963
7638, 747, 756, 124, 85
7639, 308, 307, 306, 410
7640, 147, 256, 1077, 836
7641, 756, 149, 124, 85
7642, 2, 753, 11, 128
7643, 213, 264, 921, 262
7644, 493, 494, 436, 372
7645, 693, 702, 66, 667
7646, 213, 921, 261, 262
7647, 461, 957, 966, 284
7648, 82, 1089, 673, 685
7649, 871, 479, 873, 872
7650, 82, 1089, 105, 63
7651, 374, 307, 501, 306
7652, 186, 817, 187, 458
7653, 969, 1072, 506, 873
7654, 222, 220, 130, 35
7655, 817, 818, 187, 458
7656, 506, 478, 873, 479
7657, 440, 310, 385, 325
7658, 186, 817, 458, 456
7659, 196, 161, 1096, 4
7660, 705, 688, 1087, 720
7661, 196, 1096, 161, 125
7662, 934, 933, 925, 935
7663, 519, 494, 372, 371
7664, 766, 158, 248, 159
7665, 579, 627, 581, 572
7666, 343, 413, 443, 332
7667, 729, 96, 142, 97
7668, 140, 183, 182, 825
7669, 343, 413, 445, 443
7670, 969, 1072, 246, 506
7671, 969, 1072, 874, 246
7672, 112, 1089, 113, 63
7673, 185, 142, 143, 770
7674, 280, 360, 362, 281
7675, 669, 1078, 689, 671
7676, 669, 1078, 43, 44
7677, 295, 396, 292, 297
7678, 1002, 542, 981, 595
7679, 43, 1078, 669, 671
7680, 454, 821, 822, 1086
7681, 43, 1078, 42, 44
7682, 113, 1089, 699, 63
7683, 969, 1072, 873, 874
7684, 42, 1078, 43, 671
7685, 685, 1089, 699, 698
7686, 969, 246, 278, 279
7687, 969, 278, 246, 874
7688, 821, 824, 822, 1086
7689, 1097, 969, 873, 356
7690, 715, 123, 720, 793
7691, 146, 764, 29, 226
7692, 184, 454, 452, 1086
7693, 184, 454, 1086, 821
7694, 214, 213, 247, 262
7695, 263, 214, 247, 262
7696, 625, 534, 619, 539
7697, 1056, 1027, 624, 1058
7698, 1097, 873, 969, 506
7699, 634, 848, 655, 850
7700, 48, 687, 683, 674
7701, 157, 715, 793, 123
7702, 264, 263, 262, 214
7703, 853, 656, 638, 852
7704, 719, 1099, 740, 84
7705, 265, 215, 266, 267
7706, 740, 1099, 719, 682
7707, 897, 759, 277, 874
7708, 685, 82, 106, 710
7709, 588, 613, 1014, 567
7710, 854, 856, 960, 958
7711, 391, 394, 392, 292
7712, 221, 34, 219, 218
7713, 740, 1099, 76, 84
7714, 588, 1014, 613, 617
7715, 213, 264, 262, 214
7716, 634, 781, 850, 656
7717, 478, 354, 355, 872
7718, 634, 850, 781, 780
7719, 526, 504, 528, 529
7720, 18, 778, 653, 19
7721, 18, 653, 778, 844
7722, 146, 29, 764, 795
7723, 731, 1089, 685, 697
7724, 76, 1099, 740, 682
7725, 731, 1089, 154, 105
7726, 897, 797, 895, 277
7727, 563, 605, 536, 561
7728, 228, 157, 22, 793
7729, 875, 947, 949, 948
7730, 833, 491, 345, 442
7731, 92, 69, 115, 691
7732, 491, 346, 283, 917
7733, 154, 1089, 731, 697
7734, 737, 738, 115, 691
7735, 174, 173, 641, 640
7736, 154, 1089, 112, 105
7737, 69, 92, 78, 690
7738, 64, 69, 669, 691
7739, 875, 948, 949, 25
7740, 112, 1089, 154, 697
7741, 263, 214, 215, 248
7742, 1086, 824, 823, 821
7743, 958, 959, 961, 960
7744, 254, 255, 190, 270
7745, 913, 899, 660, 901
7746, 635, 637, 900, 661
7747, 103, 1094, 792, 704
7748, 221, 220, 223, 35
7749, 636, 163, 236, 208
7750, 833, 491, 346, 345
7751, 781, 163, 236, 636
7752, 103, 1094, 104, 153
7753, 103, 1094, 704, 104
7754, 716, 119, 80, 794
7755, 418, 347, 379, 334
7756, 826, 448, 828, 342
7757, 76, 1099, 68, 84
7758, 827, 180, 181, 138
7759, 275, 250, 892, 274
7760, 275, 250, 763, 892
7761, 551, 991, 990, 552
7762, 398, 318, 290, 297
7763, 68, 1099, 76, 682
7764, 958, 854, 463, 659
7765, 958, 463, 854, 856
7766, 855, 1070, 857, 858
7767, 781, 634, 163, 636
7768, 826, 1073, 828, 448
7769, 896, 893, 276, 895
7770, 127, 797, 798, 721
7771, 958, 461, 379, 284
7772, 724, 725, 93, 670
7773, 794, 119, 80, 131
7774, 55, 686, 51, 65
7775, 598, 556, 596, 597
7776, 833, 491, 917, 346
7777, 927, 460, 928, 922
7778, 461, 856, 379, 347
7779, 926, 927, 928, 922
7780, 402, 440, 310, 401
7781, 297, 396, 292, 392
7782, 833, 491, 442, 917
7783, 157, 1094, 153, 20
7784, 392, 396, 292, 401
7785, 957, 461, 463, 958
7786, 157, 1094, 103, 153
7787, 781, 163, 634, 780
7788, 284, 380, 379, 961
7789, 845, 653, 844, 778
7790, 365, 594, 593, 482
7791, 65, 55, 686, 670
7792, 398, 317, 290, 318
7793, 605, 563, 610, 565
7794, 375, 499, 335, 306
7795, 374, 286, 501, 287
7796, 1011, 1010, 611, 1012
7797, 365, 594, 544, 593
7798, 17, 843, 814, 815
7799, 682, 1099, 672, 68
7800, 75, 736, 735, 102
7801, 302, 395, 429, 326
7802, 570, 569, 1024, 616
7803, 1066, 607, 608, 1017
7804, 300, 326, 328, 430
7805, 151, 8, 145, 1
7806, 97, 68, 682, 692
7807, 672, 1099, 682, 679
7808, 67, 96, 692, 97
7809, 151, 145, 8, 204
7810, 125, 89, 754, 713
7811, 89, 125, 62, 713
7812, 169, 133, 738, 789
7813, 672, 1099, 50, 68
7814, 687, 54, 683, 712
7815, 71, 55, 65, 670
7816, 50, 1099, 672, 679
7817, 992, 999, 1000, 993
7818, 50, 1099, 60, 68
7819, 60, 1099, 50, 679
7820, 279, 278, 251, 246
7821, 629, 628, 575, 1030
7822, 172, 251, 923, 253
7823, 157, 1094, 792, 103
7824, 686, 55, 711, 670
7825, 285, 380, 378, 377
7826, 56, 1069, 81, 53
7827, 65, 702, 667, 66
7828, 554, 620, 621, 551
7829, 65, 667, 702, 684
7830, 554, 620, 551, 382
7831, 604, 603, 568, 566
7832, 68, 76, 98, 682
7833, 1057, 1029, 1055, 573
7834, 604, 568, 603, 612
7835, 92, 107, 78, 726
7836, 759, 170, 721, 797
7837, 584, 540, 534, 625
7838, 738, 92, 690, 726
7839, 738, 133, 726, 789
7840, 789, 133, 726, 790
7841, 481, 548, 546, 366
7842, 1042, 541, 589, 578
7843, 463, 461, 856, 958
7844, 80, 716, 794, 743
7845, 309, 310, 401, 292
7846, 1025, 996, 997, 990
7847, 767, 121, 151, 7
7848, 715, 61, 677, 688
7849, 157, 1094, 20, 792
7850, 1042, 1043, 589, 541
7851, 65, 686, 684, 670
7852, 46, 45, 677, 61
7853, 999, 389, 994, 995
7854, 387, 388, 529, 530
7855, 998, 999, 994, 995
7856, 1087, 120, 87, 1090
7857, 127, 254, 189, 190
7858, 1087, 120, 146, 87
7859, 817, 816, 187, 818
7860, 1087, 120, 717, 146
7861, 722, 707, 98, 682
7862, 56, 1069, 674, 706
7863, 382, 308, 383, 1085
7864, 382, 1085, 383, 510
7865, 410, 308, 382, 1085
7866, 374, 286, 287, 376
7867, 410, 1085, 382, 510
7868, 481, 546, 548, 591
7869, 147, 1077, 188, 187
7870, 308, 1085, 309, 383
7871, 1087, 120, 1090, 717
7872, 212, 9, 924, 931
7873, 955, 24, 951, 273
7874, 573, 1035, 1033, 1032
7875, 147, 1077, 816, 836
7876, 900, 902, 662, 903
7877, 147, 1077, 187, 816
7878, 862, 468, 350, 349
7879, 651, 649, 211, 652
7880, 358, 360, 433, 486
7881, 360, 358, 281, 486
7882, 113, 1079, 165, 114
7883, 652, 212, 211, 929
7884, 410, 411, 1085, 510
7885, 448, 826, 450, 342
7886, 826, 448, 450, 182
7887, 165, 1079, 113, 734
7888, 885, 883, 886, 29
7889, 649, 651, 211, 210
7890, 268, 216, 160, 1084
7891, 132, 120, 226, 764
7892, 158, 214, 247, 248
7893, 494, 331, 330, 372
7894, 1084, 216, 160, 159
7895, 165, 1079, 785, 114
7896, 494, 330, 331, 425
7897, 883, 884, 886, 29
7898, 351, 468, 350, 864
7899, 224, 227, 225, 37
7900, 260, 268, 160, 1084
7901, 569, 1014, 603, 566
7902, 562, 608, 587, 609
7903, 29, 39, 226, 38
7904, 260, 1084, 160, 159
7905, 29, 226, 39, 146
7906, 720, 146, 793, 123
7907, 826, 1073, 448, 182
7908, 783, 165, 733, 784
7909, 826, 824, 450, 341
7910, 720, 793, 146, 795
7911, 1093, 724, 94, 65
7912, 1099, 682, 679, 719
7913, 785, 1079, 165, 734
7914, 664, 834, 915, 939
7915, 341, 449, 414, 312
7916, 614, 548, 367, 549
7917, 152, 753, 99, 128
7918, 301, 329, 426, 327
7919, 762, 17, 778, 814
7920, 569, 616, 603, 618
7921, 1093, 724, 773, 94
7922, 368, 976, 369, 441
7923, 214, 263, 215, 266
7924, 152, 99, 753, 750
7925, 937, 915, 938, 939
7926, 519, 522, 372, 493
7927, 56, 80, 117, 743
7928, 876, 760, 791, 26
7929, 876, 877, 26, 878
7930, 969, 963, 874, 873
7931, 869, 244, 479, 477
7932, 735, 1079, 785, 734
7933, 1093, 724, 728, 773
7934, 251, 277, 874, 278
7935, 279, 971, 246, 967
7936, 162, 703, 798, 763
7937, 1084, 265, 260, 268
7938, 251, 874, 277, 759
7939, 249, 797, 276, 798
7940, 478, 355, 873, 872
7941, 93, 773, 94, 139
7942, 454, 453, 1083, 339
7943, 798, 721, 101, 127
7944, 454, 453, 451, 1083
7945, 113, 165, 734, 733
7946, 454, 339, 1083, 340
7947, 798, 101, 721, 703
7948, 1086, 340, 454, 452
7949, 454, 1083, 451, 340
7950, 1086, 340, 822, 454
7951, 1086, 340, 824, 822
7952, 1083, 339, 311, 340
7953, 489, 281, 486, 487
7954, 680, 121, 86, 59
7955, 773, 140, 182, 825
7956, 1093, 724, 65, 728
7957, 446, 180, 181, 830
7958, 28, 119, 794, 37
7959, 242, 865, 241, 473
7960, 315, 419, 466, 420
7961, 780, 154, 731, 697
7962, 592, 593, 583, 545
7963, 28, 794, 119, 752
7964, 56, 683, 80, 743
7965, 666, 1078, 700, 52
7966, 586, 560, 557, 538
7967, 700, 1078, 666, 701
7968, 771, 1093, 141, 730
7969, 790, 244, 1080, 871
7970, 586, 557, 560, 601
7971, 774, 773, 139, 827
7972, 118, 35, 129, 26
7973, 773, 774, 139, 93
7974, 432, 345, 357, 491
7975, 700, 1078, 77, 52
7976, 288, 294, 393, 289
7977, 397, 288, 393, 390
7978, 771, 1093, 183, 141
7979, 118, 129, 35, 220
7980, 771, 1093, 772, 183
7981, 1021, 1016, 1022, 1023
7982, 397, 294, 393, 288
7983, 307, 382, 410, 308
7984, 551, 620, 996, 509
7985, 382, 620, 551, 509
7986, 999, 1000, 1046, 622
7987, 607, 1065, 1004, 1063
7988, 977, 979, 981, 1002
7989, 771, 1093, 730, 772
7990, 599, 600, 558, 602
7991, 496, 986, 514, 983
7992, 544, 975, 595, 594
7993, 936, 359, 357, 283
7994, 535, 584, 597, 586
7995, 1042, 1044, 1041, 589
7996, 77, 1078, 700, 701
7997, 985, 976, 983, 986
7998, 671, 666, 675, 42
7999, 752, 28, 881, 764
8000, 224, 119, 37, 131
8001, 171, 133, 726, 107
8002, 767, 16, 15, 7
8003, 64, 69, 691, 115
8004, 103, 678, 704, 751
8005, 171, 244, 245, 1080
8006, 202, 150, 6, 7
8007, 551, 381, 509, 508
8008, 307, 410, 382, 509
8009, 417, 416, 299, 405
8010, 591, 548, 590, 545
8011, 45, 677, 42, 46
8012, 330, 417, 338, 311
8013, 77, 1078, 75, 52
8014, 130, 761, 21, 742
8015, 75, 1078, 77, 701
8016, 674, 672, 50, 49
8017, 64, 1078, 44, 75
8018, 45, 42, 677, 675
8019, 382, 410, 510, 509
8020, 679, 672, 50, 674
8021, 314, 336, 439, 295
8022, 303, 396, 297, 399
8023, 367, 614, 368, 480
8024, 64, 1078, 669, 44
8025, 256, 213, 262, 247
8026, 680, 1087, 59, 86
8027, 687, 62, 713, 668
8028, 367, 368, 614, 549
8029, 64, 1078, 689, 669
8030, 680, 1087, 705, 688
8031, 370, 516, 517, 371
8032, 847, 846, 654, 653
8033, 848, 846, 779, 654
8034, 634, 848, 779, 654
8035, 940, 18, 653, 19
8036, 757, 14, 15, 808
8037, 17, 16, 812, 1
8038, 321, 478, 354, 355
8039, 680, 1087, 86, 705
8040, 53, 60, 1069, 81
8041, 145, 206, 1, 8
8042, 64, 1078, 75, 689
8043, 345, 1076, 833, 442
8044, 499, 501, 408, 306
8045, 833, 1076, 345, 832
8046, 471, 863, 864, 866
8047, 835, 818, 457, 459
8048, 683, 716, 80, 743
8049, 56, 674, 683, 706
8050, 833, 1076, 1081, 442
8051, 289, 405, 393, 406
8052, 643, 174, 640, 175
8053, 321, 478, 428, 476
8054, 642, 643, 640, 175
8055, 640, 642, 175, 633
8056, 889, 890, 953, 32
8057, 134, 640, 175, 633
8058, 810, 16, 812, 813
8059, 325, 412, 386, 385
8060, 1029, 540, 625, 539
8061, 802, 803, 11, 805
8062, 1081, 1076, 833, 832
8063, 540, 534, 625, 539
8064, 35, 118, 130, 21
8065, 154, 634, 649, 209
8066, 118, 760, 26, 129
8067, 35, 130, 118, 220
8068, 594, 365, 364, 483
8069, 391, 398, 290, 392
8070, 398, 317, 421, 420
8071, 594, 364, 365, 544
8072, 1081, 1076, 444, 442
8073, 398, 297, 290, 392
8074, 444, 1076, 1081, 832
8075, 1092, 98, 144, 110
8076, 156, 212, 652, 19
8077, 908, 192, 910, 909
8078, 863, 787, 241, 167
8079, 468, 351, 421, 470
8080, 867, 1075, 475, 477
8081, 642, 635, 175, 633
8082, 867, 1075, 868, 475
8083, 577, 571, 572, 631
8084, 933, 934, 925, 932
8085, 571, 535, 538, 626
8086, 572, 571, 538, 626
8087, 540, 584, 535, 626
8088, 867, 1075, 870, 868
8089, 460, 927, 459, 922
8090, 1086, 771, 821, 823
8091, 545, 543, 593, 546
8092, 2, 148, 192, 637
8093, 912, 913, 914, 660
8094, 545, 593, 543, 592
8095, 912, 10, 910, 637
8096, 192, 644, 910, 637
8097, 853, 638, 959, 852
8098, 192, 2, 637, 910
8099, 175, 635, 126, 633
8100, 28, 27, 37, 794
8101, 889, 32, 953, 891
8102, 747, 755, 712, 124
8103, 149, 5, 14, 756
8104, 375, 286, 376, 378
8105, 918, 919, 920, 917
8106, 679, 60, 742, 1069
8107, 606, 542, 595, 536
8108, 1024, 618, 616, 569
8109, 173, 639, 641, 640
8110, 140, 773, 182, 139
8111, 1024, 616, 618, 1020
8112, 508, 551, 996, 509
8113, 1069, 60, 742, 81
8114, 573, 1035, 1034, 1033
8115, 55, 750, 711, 99
8116, 773, 140, 94, 139
8117, 635, 176, 175, 126
8118, 310, 295, 401, 292
8119, 854, 853, 638, 960
8120, 392, 394, 401, 292
8121, 944, 33, 217, 945
8122, 55, 711, 750, 686
8123, 679, 742, 706, 1069
8124, 396, 295, 292, 401
8125, 527, 526, 320, 524
8126, 1086, 771, 184, 821
8127, 839, 259, 248, 837
8128, 1086, 771, 183, 184
8129, 1086, 771, 823, 183
8130, 548, 547, 590, 545
8131, 77, 1079, 47, 79
8132, 340, 449, 312, 451
8133, 1075, 476, 474, 477
8134, 1092, 98, 707, 144
8135, 47, 1079, 77, 700
8136, 47, 1079, 673, 79
8137, 1020, 1060, 618, 1024
8138, 835, 373, 457, 337
8139, 835, 457, 373, 460
8140, 605, 563, 565, 561
8141, 1092, 98, 722, 707
8142, 326, 365, 429, 305
8143, 673, 1079, 47, 700
8144, 282, 283, 488, 357
8145, 731, 155, 746, 741
8146, 942, 18, 844, 653
8147, 1092, 98, 110, 722
8148, 774, 827, 139, 138
8149, 856, 1070, 855, 858
8150, 482, 365, 483, 429
8151, 155, 105, 106, 741
8152, 699, 1079, 673, 700
8153, 856, 1070, 463, 855
8154, 525, 507, 524, 973
8155, 599, 558, 597, 555
8156, 856, 1070, 462, 463
8157, 505, 525, 507, 524
8158, 760, 876, 877, 26
8159, 118, 760, 719, 742
8160, 526, 525, 505, 524
8161, 599, 597, 558, 600
8162, 26, 118, 35, 21
8163, 856, 1070, 858, 462
8164, 1067, 745, 150, 708
8165, 507, 971, 524, 973
8166, 551, 508, 996, 990
8167, 412, 512, 386, 385
8168, 513, 512, 386, 412
8169, 643, 174, 641, 640
8170, 850, 656, 852, 851
8171, 986, 987, 982, 369
8172, 672, 674, 667, 49
8173, 853, 656, 852, 850
8174, 986, 976, 369, 982
8175, 1071, 180, 137, 179
8176, 1071, 180, 829, 137
8177, 511, 440, 411, 384
8178, 620, 554, 510, 382
8179, 598, 554, 510, 620
8180, 1092, 722, 776, 768
8181, 555, 599, 558, 557
8182, 545, 537, 585, 536
8183, 68, 67, 50, 672
8184, 511, 556, 384, 383
8185, 1071, 180, 832, 829
8186, 315, 403, 420, 316
8187, 1071, 777, 775, 831
8188, 1082, 746, 778, 653
8189, 315, 420, 403, 419
8190, 758, 740, 109, 719
8191, 1067, 745, 15, 150
8192, 1071, 777, 178, 136
8193, 1092, 187, 147, 144
8194, 1071, 777, 831, 178
8195, 256, 927, 188, 459
8196, 535, 586, 538, 626
8197, 746, 155, 1082, 741
8198, 1060, 1061, 618, 1059
8199, 969, 970, 963, 356
8200, 304, 505, 428, 320
8201, 746, 1082, 778, 741
8202, 1067, 745, 757, 15
8203, 1060, 1061, 1062, 618
8204, 1067, 745, 708, 757
8205, 505, 387, 320, 304
8206, 387, 526, 320, 527
8207, 112, 1088, 163, 164
8208, 927, 460, 459, 925
8209, 556, 598, 600, 597
8210, 1092, 187, 816, 147
8211, 556, 600, 558, 597
8212, 322, 1076, 345, 432
8213, 736, 75, 735, 701
8214, 322, 1076, 344, 345
8215, 322, 1076, 332, 344
8216, 893, 798, 276, 895
8217, 798, 797, 276, 895
8218, 555, 556, 558, 597
8219, 163, 1088, 112, 732
8220, 147, 256, 213, 188
8221, 518, 515, 495, 516
8222, 163, 1088, 782, 164
8223, 137, 180, 829, 138
8224, 977, 484, 981, 979
8225, 782, 1088, 163, 732
8226, 759, 897, 277, 797
8227, 774, 137, 829, 138
8228, 782, 1088, 783, 164
8229, 77, 75, 735, 102
8230, 783, 1088, 782, 732
8231, 187, 1092, 1074, 144
8232, 322, 358, 488, 357
8233, 150, 121, 7, 202
8234, 322, 1076, 432, 332
8235, 1092, 817, 187, 1074
8236, 1092, 817, 816, 187
8237, 1092, 817, 768, 816
8238, 331, 301, 425, 299
8239, 425, 301, 405, 299
8240, 1080, 759, 790, 871
8241, 493, 519, 494, 372
8242, 348, 419, 466, 315
8243, 31, 890, 888, 887
8244, 1074, 1092, 707, 144
8245, 827, 180, 138, 829
8246, 774, 827, 138, 829
8247, 701, 75, 735, 77
8248, 351, 468, 421, 350
8249, 348, 466, 419, 464
8250, 631, 578, 580, 577
8251, 1092, 817, 1074, 768
8252, 707, 1092, 1074, 768
8253, 249, 797, 277, 276
8254, 1079, 102, 77, 735
8255, 275, 250, 254, 763
8256, 1079, 102, 114, 77
8257, 771, 183, 772, 823
8258, 330, 425, 299, 331
8259, 854, 855, 463, 237
8260, 784, 239, 785, 859
8261, 722, 1092, 707, 768
8262, 330, 417, 299, 425
8263, 854, 463, 855, 856
8264, 1079, 102, 785, 114
8265, 1079, 102, 735, 785
8266, 294, 414, 313, 397
8267, 47, 52, 57, 666
8268, 1091, 819, 817, 820
8269, 166, 861, 785, 239
8270, 425, 417, 299, 405
8271, 601, 992, 602, 559
8272, 1091, 819, 456, 817
8273, 838, 257, 836, 932
8274, 31, 889, 890, 887
8275, 294, 414, 312, 313
8276, 42, 671, 677, 675
8277, 832, 831, 833, 1081
8278, 810, 745, 15, 757
8279, 1073, 773, 139, 182
8280, 1073, 773, 827, 139
8281, 105, 155, 731, 741
8282, 67, 672, 49, 50
8283, 212, 9, 19, 156
8284, 1073, 773, 825, 827
8285, 586, 601, 560, 623
8286, 944, 33, 945, 946
8287, 17, 18, 19, 778
8288, 33, 944, 268, 946
8289, 1073, 773, 182, 825
8290, 613, 1010, 611, 564
8291, 294, 414, 415, 312
8292, 613, 611, 1010, 1012
8293, 445, 342, 448, 447
8294, 445, 448, 342, 828
8295, 294, 414, 397, 415
8296, 1086, 183, 452, 184
8297, 1079, 63, 113, 699
8298, 1086, 183, 823, 824
8299, 798, 893, 275, 763
8300, 250, 191, 272, 270
8301, 534, 621, 552, 553
8302, 1079, 63, 79, 113
8303, 1079, 63, 673, 79
8304, 1091, 819, 820, 822
8305, 826, 182, 183, 825
8306, 1070, 783, 238, 237
8307, 427, 400, 328, 430
8308, 826, 182, 450, 183
8309, 882, 27, 879, 880
8310, 1079, 63, 699, 673
8311, 239, 861, 785, 859
8312, 1081, 490, 444, 179
8313, 1070, 783, 855, 857
8314, 120, 717, 764, 714
8315, 224, 222, 131, 37
8316, 752, 119, 695, 716
8317, 1081, 917, 178, 833
8318, 1067, 86, 150, 122
8319, 202, 200, 203, 6
8320, 1067, 86, 708, 150
8321, 767, 709, 151, 121
8322, 1081, 917, 490, 178
8323, 1081, 917, 442, 490
8324, 710, 681, 100, 748
8325, 473, 242, 868, 475
8326, 709, 83, 151, 121
8327, 955, 891, 954, 953
8328, 473, 868, 242, 865
8329, 479, 869, 871, 244
8330, 1070, 783, 237, 855
8331, 10, 899, 801, 799
8332, 479, 871, 869, 872
8333, 111, 126, 91, 718
8334, 243, 788, 789, 169
8335, 1081, 917, 833, 442
8336, 417, 330, 299, 311
8337, 243, 789, 788, 867
8338, 1072, 246, 506, 245
8339, 326, 395, 429, 430
8340, 41, 40, 232, 20
8341, 20, 135, 153, 232
8342, 630, 1038, 578, 576
8343, 257, 256, 836, 925
8344, 1081, 180, 179, 444
8345, 1081, 490, 179, 178
8346, 368, 976, 982, 369
8347, 630, 578, 1038, 1040
8348, 467, 858, 348, 860
8349, 1081, 180, 1071, 179
8350, 10, 637, 899, 799
8351, 1072, 246, 759, 874
8352, 1081, 831, 833, 178
8353, 420, 468, 349, 350
8354, 9, 206, 207, 8
8355, 106, 156, 762, 145
8356, 420, 468, 466, 349
8357, 1081, 180, 832, 1071
8358, 352, 351, 866, 1068
8359, 549, 976, 982, 368
8360, 343, 445, 828, 830
8361, 467, 348, 858, 464
8362, 230, 157, 153, 40
8363, 216, 944, 268, 217
8364, 40, 157, 153, 20
8365, 753, 802, 801, 11
8366, 113, 1088, 1089, 112
8367, 1081, 180, 444, 832
8368, 352, 1068, 472, 422
8369, 1072, 170, 1080, 759
8370, 220, 222, 223, 35
8371, 54, 56, 683, 80
8372, 1068, 470, 472, 422
8373, 351, 352, 422, 1068
8374, 537, 566, 582, 604
8375, 272, 234, 951, 950
8376, 882, 27, 28, 881
8377, 351, 1068, 422, 470
8378, 323, 302, 324, 404
8379, 239, 165, 785, 166
8380, 846, 847, 654, 849
8381, 693, 702, 95, 66
8382, 850, 656, 851, 655
8383, 1072, 170, 245, 1080
8384, 10, 912, 914, 660
8385, 27, 882, 879, 881
8386, 605, 563, 604, 610
8387, 1072, 170, 246, 245
8388, 4, 3, 196, 197
8389, 39, 228, 22, 793
8390, 40, 230, 232, 153
8391, 39, 228, 229, 231
8392, 40, 228, 157, 22
8393, 1072, 170, 759, 246
8394, 1089, 733, 113, 699
8395, 239, 165, 784, 785
8396, 191, 271, 272, 270
8397, 606, 605, 561, 536
8398, 20, 40, 232, 153
8399, 1054, 1053, 1048, 581
8400, 1089, 733, 1088, 113
8401, 447, 413, 445, 342
8402, 994, 1045, 560, 999
8403, 560, 623, 622, 579
8404, 1089, 733, 698, 1088
8405, 1089, 733, 699, 698
8406, 1047, 1053, 581, 1048
8407, 1054, 627, 581, 1048
8408, 1046, 622, 623, 579
8409, 445, 413, 343, 342
8410, 826, 1073, 182, 825
8411, 998, 1045, 994, 999
8412, 343, 413, 313, 342
8413, 454, 1091, 819, 456
8414, 60, 1099, 84, 68
8415, 1045, 1046, 1047, 579
8416, 560, 559, 992, 601
8417, 122, 150, 1067, 6
8418, 469, 864, 861, 862
8419, 598, 554, 383, 510
8420, 469, 861, 864, 240
8421, 86, 680, 705, 708
8422, 349, 467, 466, 348
8423, 860, 467, 349, 348
8424, 560, 992, 559, 994
8425, 467, 860, 349, 862
8426, 454, 819, 1091, 822
8427, 469, 467, 349, 862
8428, 744, 708, 757, 1067
8429, 467, 469, 349, 466
8430, 578, 1049, 589, 632
8431, 962, 874, 277, 278
8432, 541, 578, 580, 1049
8433, 962, 277, 874, 897
8434, 578, 541, 589, 1049
8435, 1075, 869, 867, 870
8436, 1075, 869, 870, 872
8437, 1075, 869, 872, 477
8438, 1075, 869, 477, 867

** Define element set Eall
*ELSET, ELSET=Eall
Evolumes



***********************************************************
** Element sets for materials and FEM element type (solid, shell, beam, fluid)
*ELSET,ELSET=MaterialSolidSolid
Evolumes

***********************************************************
** constraints fixed node sets
** ConstraintFixed
*NSET,NSET=ConstraintFixed
1033,
1034,
1035,
1036,
1037,
1038,
1039,
1040,
1041,
1042,
1043,
1044,

** Physical constants for SI(mm) unit system with Kelvins
*PHYSICAL CONSTANTS, ABSOLUTE ZERO=0, STEFAN BOLTZMANN=5.670374419e-11

***********************************************************
** Materials
** see information about units at file end
** FreeCAD material name: CalculiX-Steel
** MaterialSolid
*MATERIAL, NAME=MaterialSolid
*ELASTIC
210000,0.3

***********************************************************
** Sections
*SOLID SECTION, ELSET=MaterialSolidSolid, MATERIAL=MaterialSolid

***********************************************************
** At least one step is needed to run an CalculiX analysis of FreeCAD
*STEP, INC=2000
*STATIC


***********************************************************
** Fixed Constraints
** ConstraintFixed
*BOUNDARY
ConstraintFixed,1
ConstraintFixed,2
ConstraintFixed,3


***********************************************************
** constraints force node loads
*CLOAD
** ConstraintForce
** node loads on shape: Mesh001_solid:Face44
1016,2,-1.688028706445
1022,2,-1.688028706445
1023,2,-1.688028706445

** node loads on shape: Mesh001_solid:Face50
1013,2,-1.688028706445
1016,2,-1.688028706445
1022,2,-1.688028706445

** node loads on shape: Mesh001_solid:Face51
1012,2,-1.670449905925
1013,2,-1.670449905925
1016,2,-1.670449905925

** node loads on shape: Mesh001_solid:Face54
1010,2,-1.761274271541
1012,2,-1.761274271541
1013,2,-1.761274271541

** node loads on shape: Mesh001_solid:Face53
1010,2,-1.701315508948
1011,2,-1.701315508948
1012,2,-1.701315508948

** node loads on shape: Mesh001_solid:Face56
1008,2,-1.610491143333
1010,2,-1.610491143333
1011,2,-1.610491143333

** node loads on shape: Mesh001_solid:Face55
1008,2,-1.634906331698
1009,2,-1.634906331698
1011,2,-1.634906331698

** node loads on shape: Mesh001_solid:Face59
1005,2,-1.634906331698
1008,2,-1.634906331698
1009,2,-1.634906331698

** node loads on shape: Mesh001_solid:Face58
1005,2,-1.638632880317
1007,2,-1.638632880317
1009,2,-1.638632880317

** node loads on shape: Mesh001_solid:Face57
1005,2,-1.638632880317
1006,2,-1.638632880317
1007,2,-1.638632880317



***********************************************************
** Outputs --> frd file
*NODE FILE
U
*EL FILE
S, E
** outputs --> dat file
** reaction forces for Constraint fixed
*NODE PRINT, NSET=ConstraintFixed, TOTALS=ONLY
RF

*OUTPUT, FREQUENCY=1
***********************************************************
*END STEP

***********************************************************
** CalculiX Input file
**   written by    --> FreeCAD 1.0.0
**   written on    --> Mon Jun 16 17:05:10 2025
**   file name     --> notch_model_coarse.FCStd
**   analysis name --> Analysis
**
**
***********************************************************
**  About units:
**  See ccx manual, ccx does not know about any unit.
**  Golden rule: The user must make sure that the numbers they provide have consistent units.
**  The user is the FreeCAD calculix writer module ;-)
**
**  The unit system which is used at Guido Dhondt's company: mm, N, s, K
**  Since Length and Mass are connected by Force, if Length is mm the Mass is in t to get N
**  The following units are used to write to inp file:
**
**  Length: mm (this includes the mesh geometry)
**  Mass: t
**  TimeSpan: s
**  Temperature: K
**
**  This leads to:
**  Force: N
**  Pressure: N/mm^2 == MPa (Young's Modulus has unit Pressure)
**  Density: t/mm^3
**  Gravity: mm/s^2
**  Thermal conductivity: t*mm/K/s^3 == as W/m/K == kW/mm/K
**  Specific Heat: mm^2/s^2/K = J/kg/K == kJ/t/K
**
